*SPEF "ieee 1481-1999"
*DESIGN "CF_SRAM_1024x32_wb_wrapper"
*DATE "13:34:08 Saturday November 22, 2025"
*VENDOR "The OpenROAD Project"
*PROGRAM "OpenROAD"
*VERSION "edf00dff99f6c40d67a30c0e22a8191c5d2ed9d6"
*DESIGN_FLOW "NAME_SCOPE LOCAL" "PIN_CAP NONE"
*DIVIDER /
*DELIMITER :
*BUS_DELIMITER []
*T_UNIT 1 NS
*C_UNIT 1 PF
*R_UNIT 1 OHM
*L_UNIT 1 HENRY

*NAME_MAP
*3 wb_clk_i
*4 wb_rst_i
*5 wbs_ack_o
*6 wbs_adr_i[0]
*7 wbs_adr_i[10]
*8 wbs_adr_i[11]
*9 wbs_adr_i[12]
*10 wbs_adr_i[13]
*11 wbs_adr_i[14]
*12 wbs_adr_i[15]
*13 wbs_adr_i[16]
*14 wbs_adr_i[17]
*15 wbs_adr_i[18]
*16 wbs_adr_i[19]
*17 wbs_adr_i[1]
*18 wbs_adr_i[20]
*19 wbs_adr_i[21]
*20 wbs_adr_i[22]
*21 wbs_adr_i[23]
*22 wbs_adr_i[24]
*23 wbs_adr_i[25]
*24 wbs_adr_i[26]
*25 wbs_adr_i[27]
*26 wbs_adr_i[28]
*27 wbs_adr_i[29]
*28 wbs_adr_i[2]
*29 wbs_adr_i[30]
*30 wbs_adr_i[31]
*31 wbs_adr_i[3]
*32 wbs_adr_i[4]
*33 wbs_adr_i[5]
*34 wbs_adr_i[6]
*35 wbs_adr_i[7]
*36 wbs_adr_i[8]
*37 wbs_adr_i[9]
*38 wbs_cyc_i
*39 wbs_dat_i[0]
*40 wbs_dat_i[10]
*41 wbs_dat_i[11]
*42 wbs_dat_i[12]
*43 wbs_dat_i[13]
*44 wbs_dat_i[14]
*45 wbs_dat_i[15]
*46 wbs_dat_i[16]
*47 wbs_dat_i[17]
*48 wbs_dat_i[18]
*49 wbs_dat_i[19]
*50 wbs_dat_i[1]
*51 wbs_dat_i[20]
*52 wbs_dat_i[21]
*53 wbs_dat_i[22]
*54 wbs_dat_i[23]
*55 wbs_dat_i[24]
*56 wbs_dat_i[25]
*57 wbs_dat_i[26]
*58 wbs_dat_i[27]
*59 wbs_dat_i[28]
*60 wbs_dat_i[29]
*61 wbs_dat_i[2]
*62 wbs_dat_i[30]
*63 wbs_dat_i[31]
*64 wbs_dat_i[3]
*65 wbs_dat_i[4]
*66 wbs_dat_i[5]
*67 wbs_dat_i[6]
*68 wbs_dat_i[7]
*69 wbs_dat_i[8]
*70 wbs_dat_i[9]
*71 wbs_dat_o[0]
*72 wbs_dat_o[10]
*73 wbs_dat_o[11]
*74 wbs_dat_o[12]
*75 wbs_dat_o[13]
*76 wbs_dat_o[14]
*77 wbs_dat_o[15]
*78 wbs_dat_o[16]
*79 wbs_dat_o[17]
*80 wbs_dat_o[18]
*81 wbs_dat_o[19]
*82 wbs_dat_o[1]
*83 wbs_dat_o[20]
*84 wbs_dat_o[21]
*85 wbs_dat_o[22]
*86 wbs_dat_o[23]
*87 wbs_dat_o[24]
*88 wbs_dat_o[25]
*89 wbs_dat_o[26]
*90 wbs_dat_o[27]
*91 wbs_dat_o[28]
*92 wbs_dat_o[29]
*93 wbs_dat_o[2]
*94 wbs_dat_o[30]
*95 wbs_dat_o[31]
*96 wbs_dat_o[3]
*97 wbs_dat_o[4]
*98 wbs_dat_o[5]
*99 wbs_dat_o[6]
*100 wbs_dat_o[7]
*101 wbs_dat_o[8]
*102 wbs_dat_o[9]
*103 wbs_sel_i[0]
*104 wbs_sel_i[1]
*105 wbs_sel_i[2]
*106 wbs_sel_i[3]
*107 wbs_stb_i
*108 wbs_we_i
*109 _00_
*110 clknet_0_wb_clk_i
*111 clknet_1_0__leaf_wb_clk_i
*112 clknet_1_1__leaf_wb_clk_i
*113 i_ram_wb_controller\.DO\[0\]
*114 i_ram_wb_controller\.DO\[10\]
*115 i_ram_wb_controller\.DO\[11\]
*116 i_ram_wb_controller\.DO\[12\]
*117 i_ram_wb_controller\.DO\[13\]
*118 i_ram_wb_controller\.DO\[14\]
*119 i_ram_wb_controller\.DO\[15\]
*120 i_ram_wb_controller\.DO\[16\]
*121 i_ram_wb_controller\.DO\[17\]
*122 i_ram_wb_controller\.DO\[18\]
*123 i_ram_wb_controller\.DO\[19\]
*124 i_ram_wb_controller\.DO\[1\]
*125 i_ram_wb_controller\.DO\[20\]
*126 i_ram_wb_controller\.DO\[21\]
*127 i_ram_wb_controller\.DO\[22\]
*128 i_ram_wb_controller\.DO\[23\]
*129 i_ram_wb_controller\.DO\[24\]
*130 i_ram_wb_controller\.DO\[25\]
*131 i_ram_wb_controller\.DO\[26\]
*132 i_ram_wb_controller\.DO\[27\]
*133 i_ram_wb_controller\.DO\[28\]
*134 i_ram_wb_controller\.DO\[29\]
*135 i_ram_wb_controller\.DO\[2\]
*136 i_ram_wb_controller\.DO\[30\]
*137 i_ram_wb_controller\.DO\[31\]
*138 i_ram_wb_controller\.DO\[3\]
*139 i_ram_wb_controller\.DO\[4\]
*140 i_ram_wb_controller\.DO\[5\]
*141 i_ram_wb_controller\.DO\[6\]
*142 i_ram_wb_controller\.DO\[7\]
*143 i_ram_wb_controller\.DO\[8\]
*144 i_ram_wb_controller\.DO\[9\]
*145 i_ram_wb_controller\.EN
*146 i_ram_wb_controller\.R_WB
*147 net1
*148 net10
*149 net11
*150 net12
*151 net13
*152 net14
*153 net15
*154 net16
*155 net17
*156 net18
*157 net19
*158 net2
*159 net20
*160 net21
*161 net22
*162 net23
*163 net24
*164 net25
*165 net26
*166 net27
*167 net28
*168 net29
*169 net3
*170 net30
*171 net31
*172 net32
*173 net33
*174 net34
*175 net35
*176 net36
*177 net37
*178 net38
*179 net39
*180 net4
*181 net40
*182 net41
*183 net42
*184 net43
*185 net44
*186 net45
*187 net46
*188 net47
*189 net48
*190 net49
*191 net5
*192 net50
*193 net51
*194 net52
*195 net53
*196 net54
*197 net55
*198 net56
*199 net57
*200 net58
*201 net59
*202 net6
*203 net60
*204 net61
*205 net62
*206 net63
*207 net64
*208 net65
*209 net66
*210 net67
*211 net68
*212 net69
*213 net7
*214 net70
*215 net71
*216 net72
*217 net73
*218 net74
*219 net75
*220 net76
*221 net77
*222 net78
*223 net79
*224 net8
*225 net80
*226 net81
*227 net82
*228 net83
*229 net84
*230 net85
*231 net86
*232 net87
*233 net88
*234 net89
*235 net9
*236 net90
*237 net91
*238 net92
*239 net93
*240 net94
*241 net95
*242 net96
*243 net97
*244 net98
*245 sram_scan_out_cc
*246 ANTENNA_1
*247 ANTENNA__10__A
*248 ANTENNA__10__Y
*249 ANTENNA__12__A
*250 ANTENNA__12__B
*251 ANTENNA__12__X
*252 ANTENNA__13__A_N
*253 ANTENNA__13__B
*254 ANTENNA__13__C
*255 ANTENNA__13__D
*256 ANTENNA__13__X
*257 ANTENNA__14__A_N
*258 ANTENNA__14__B
*259 ANTENNA__14__C
*260 ANTENNA__14__D
*261 ANTENNA__14__X
*262 ANTENNA__15__A_N
*263 ANTENNA__15__B
*264 ANTENNA__15__C
*265 ANTENNA__15__D
*266 ANTENNA__15__X
*267 ANTENNA__16__A_N
*268 ANTENNA__16__B
*269 ANTENNA__16__C
*270 ANTENNA__16__D
*271 ANTENNA__16__X
*272 ANTENNA__17__A_N
*273 ANTENNA__17__B
*274 ANTENNA__17__C
*275 ANTENNA__17__D
*276 ANTENNA__17__X
*277 ANTENNA__18__A_N
*278 ANTENNA__18__B
*279 ANTENNA__18__C
*280 ANTENNA__18__D
*281 ANTENNA__18__X
*282 ANTENNA__19__A_N
*283 ANTENNA__19__B
*284 ANTENNA__19__C
*285 ANTENNA__19__D
*286 ANTENNA__19__X
*287 ANTENNA__20__A_N
*288 ANTENNA__20__B
*289 ANTENNA__20__C
*290 ANTENNA__20__D
*291 ANTENNA__20__X
*292 ANTENNA__21__A_N
*293 ANTENNA__21__B
*294 ANTENNA__21__C
*295 ANTENNA__21__D
*296 ANTENNA__21__X
*297 ANTENNA__22__A_N
*298 ANTENNA__22__B
*299 ANTENNA__22__C
*300 ANTENNA__22__D
*301 ANTENNA__22__X
*302 ANTENNA__23__A_N
*303 ANTENNA__23__B
*304 ANTENNA__23__C
*305 ANTENNA__23__D
*306 ANTENNA__23__X
*307 ANTENNA__24__A_N
*308 ANTENNA__24__B
*309 ANTENNA__24__C
*310 ANTENNA__24__D
*311 ANTENNA__24__X
*312 ANTENNA__25__A_N
*313 ANTENNA__25__B
*314 ANTENNA__25__C
*315 ANTENNA__25__D
*316 ANTENNA__25__X
*317 ANTENNA__26__A_N
*318 ANTENNA__26__B
*319 ANTENNA__26__C
*320 ANTENNA__26__D
*321 ANTENNA__27__A_N
*322 ANTENNA__27__B
*323 ANTENNA__27__C
*324 ANTENNA__27__D
*325 ANTENNA__27__X
*326 ANTENNA__28__A_N
*327 ANTENNA__28__B
*328 ANTENNA__28__C
*329 ANTENNA__28__D
*330 ANTENNA__29__A_N
*331 ANTENNA__29__B
*332 ANTENNA__29__C
*333 ANTENNA__29__D
*334 ANTENNA__30__A_N
*335 ANTENNA__30__B
*336 ANTENNA__30__C
*337 ANTENNA__30__D
*338 ANTENNA__31__A_N
*339 ANTENNA__31__B
*340 ANTENNA__31__C
*341 ANTENNA__31__D
*342 ANTENNA__32__A_N
*343 ANTENNA__32__B
*344 ANTENNA__32__C
*345 ANTENNA__32__D
*346 ANTENNA__33__A_N
*347 ANTENNA__33__B
*348 ANTENNA__33__C
*349 ANTENNA__33__D
*350 ANTENNA__34__A_N
*351 ANTENNA__34__B
*352 ANTENNA__34__C
*353 ANTENNA__34__D
*354 ANTENNA__35__A_N
*355 ANTENNA__35__B
*356 ANTENNA__35__D
*357 ANTENNA__36__A_N
*358 ANTENNA__36__B
*359 ANTENNA__36__D
*360 ANTENNA__37__A_N
*361 ANTENNA__37__B
*362 ANTENNA__37__D
*363 ANTENNA__38__A_N
*364 ANTENNA__38__B
*365 ANTENNA__38__D
*366 ANTENNA__39__A_N
*367 ANTENNA__39__B
*368 ANTENNA__39__C
*369 ANTENNA__39__D
*370 ANTENNA__39__X
*371 ANTENNA__40__A_N
*372 ANTENNA__40__B
*373 ANTENNA__40__C
*374 ANTENNA__40__D
*375 ANTENNA__40__X
*376 ANTENNA__41__A_N
*377 ANTENNA__41__B
*378 ANTENNA__41__C
*379 ANTENNA__41__D
*380 ANTENNA__41__X
*381 ANTENNA__42__A_N
*382 ANTENNA__42__B
*383 ANTENNA__42__C
*384 ANTENNA__42__D
*385 ANTENNA__42__X
*386 ANTENNA__43__A_N
*387 ANTENNA__43__B
*388 ANTENNA__43__C
*389 ANTENNA__43__D
*390 ANTENNA__43__X
*391 ANTENNA__44__A_N
*392 ANTENNA__44__B
*393 ANTENNA__44__C
*394 ANTENNA__44__D
*395 ANTENNA__44__X
*396 ANTENNA__45__CLK
*397 ANTENNA__45__D
*398 ANTENNA_clkbuf_0_wb_clk_i_A
*399 ANTENNA_clkbuf_0_wb_clk_i_X
*400 ANTENNA_clkbuf_1_0__f_wb_clk_i_A
*401 ANTENNA_clkbuf_1_0__f_wb_clk_i_X
*402 ANTENNA_clkbuf_1_1__f_wb_clk_i_A
*403 ANTENNA_clkbuf_1_1__f_wb_clk_i_X
*404 ANTENNA_clkload0_A
*405 ANTENNA_fanout84_A
*406 ANTENNA_fanout84_X
*407 ANTENNA_fanout85_A
*408 ANTENNA_fanout85_X
*409 ANTENNA_fanout86_A
*410 ANTENNA_fanout86_X
*411 ANTENNA_fanout87_X
*412 ANTENNA_fanout88_A
*413 ANTENNA_fanout88_X
*414 ANTENNA_fanout89_A
*415 ANTENNA_fanout89_X
*416 ANTENNA_i_sram_AD\[0\]
*417 ANTENNA_i_sram_AD\[1\]
*418 ANTENNA_i_sram_AD\[2\]
*419 ANTENNA_i_sram_AD\[3\]
*420 ANTENNA_i_sram_AD\[4\]
*421 ANTENNA_i_sram_AD\[5\]
*422 ANTENNA_i_sram_AD\[6\]
*423 ANTENNA_i_sram_AD\[7\]
*424 ANTENNA_i_sram_AD\[8\]
*425 ANTENNA_i_sram_AD\[9\]
*426 ANTENNA_i_sram_BEN\[0\]
*427 ANTENNA_i_sram_BEN\[10\]
*428 ANTENNA_i_sram_BEN\[11\]
*429 ANTENNA_i_sram_BEN\[12\]
*430 ANTENNA_i_sram_BEN\[13\]
*431 ANTENNA_i_sram_BEN\[14\]
*432 ANTENNA_i_sram_BEN\[15\]
*433 ANTENNA_i_sram_BEN\[16\]
*434 ANTENNA_i_sram_BEN\[17\]
*435 ANTENNA_i_sram_BEN\[18\]
*436 ANTENNA_i_sram_BEN\[19\]
*437 ANTENNA_i_sram_BEN\[1\]
*438 ANTENNA_i_sram_BEN\[20\]
*439 ANTENNA_i_sram_BEN\[21\]
*440 ANTENNA_i_sram_BEN\[22\]
*441 ANTENNA_i_sram_BEN\[23\]
*442 ANTENNA_i_sram_BEN\[24\]
*443 ANTENNA_i_sram_BEN\[25\]
*444 ANTENNA_i_sram_BEN\[26\]
*445 ANTENNA_i_sram_BEN\[27\]
*446 ANTENNA_i_sram_BEN\[28\]
*447 ANTENNA_i_sram_BEN\[29\]
*448 ANTENNA_i_sram_BEN\[2\]
*449 ANTENNA_i_sram_BEN\[30\]
*450 ANTENNA_i_sram_BEN\[31\]
*451 ANTENNA_i_sram_BEN\[3\]
*452 ANTENNA_i_sram_BEN\[4\]
*453 ANTENNA_i_sram_BEN\[5\]
*454 ANTENNA_i_sram_BEN\[6\]
*455 ANTENNA_i_sram_BEN\[7\]
*456 ANTENNA_i_sram_BEN\[8\]
*457 ANTENNA_i_sram_BEN\[9\]
*458 ANTENNA_i_sram_CLKin
*459 ANTENNA_i_sram_DI\[0\]
*460 ANTENNA_i_sram_DI\[10\]
*461 ANTENNA_i_sram_DI\[11\]
*462 ANTENNA_i_sram_DI\[12\]
*463 ANTENNA_i_sram_DI\[13\]
*464 ANTENNA_i_sram_DI\[14\]
*465 ANTENNA_i_sram_DI\[15\]
*466 ANTENNA_i_sram_DI\[16\]
*467 ANTENNA_i_sram_DI\[17\]
*468 ANTENNA_i_sram_DI\[18\]
*469 ANTENNA_i_sram_DI\[19\]
*470 ANTENNA_i_sram_DI\[1\]
*471 ANTENNA_i_sram_DI\[20\]
*472 ANTENNA_i_sram_DI\[21\]
*473 ANTENNA_i_sram_DI\[22\]
*474 ANTENNA_i_sram_DI\[23\]
*475 ANTENNA_i_sram_DI\[24\]
*476 ANTENNA_i_sram_DI\[25\]
*477 ANTENNA_i_sram_DI\[26\]
*478 ANTENNA_i_sram_DI\[27\]
*479 ANTENNA_i_sram_DI\[28\]
*480 ANTENNA_i_sram_DI\[29\]
*481 ANTENNA_i_sram_DI\[2\]
*482 ANTENNA_i_sram_DI\[30\]
*483 ANTENNA_i_sram_DI\[31\]
*484 ANTENNA_i_sram_DI\[3\]
*485 ANTENNA_i_sram_DI\[4\]
*486 ANTENNA_i_sram_DI\[5\]
*487 ANTENNA_i_sram_DI\[6\]
*488 ANTENNA_i_sram_DI\[7\]
*489 ANTENNA_i_sram_DI\[8\]
*490 ANTENNA_i_sram_DI\[9\]
*491 ANTENNA_i_sram_DO\[0\]
*492 ANTENNA_i_sram_DO\[10\]
*493 ANTENNA_i_sram_DO\[11\]
*494 ANTENNA_i_sram_DO\[12\]
*495 ANTENNA_i_sram_DO\[13\]
*496 ANTENNA_i_sram_DO\[14\]
*497 ANTENNA_i_sram_DO\[15\]
*498 ANTENNA_i_sram_DO\[16\]
*499 ANTENNA_i_sram_DO\[17\]
*500 ANTENNA_i_sram_DO\[18\]
*501 ANTENNA_i_sram_DO\[19\]
*502 ANTENNA_i_sram_DO\[1\]
*503 ANTENNA_i_sram_DO\[20\]
*504 ANTENNA_i_sram_DO\[21\]
*505 ANTENNA_i_sram_DO\[22\]
*506 ANTENNA_i_sram_DO\[23\]
*507 ANTENNA_i_sram_DO\[24\]
*508 ANTENNA_i_sram_DO\[25\]
*509 ANTENNA_i_sram_DO\[26\]
*510 ANTENNA_i_sram_DO\[27\]
*511 ANTENNA_i_sram_DO\[28\]
*512 ANTENNA_i_sram_DO\[29\]
*513 ANTENNA_i_sram_DO\[2\]
*514 ANTENNA_i_sram_DO\[30\]
*515 ANTENNA_i_sram_DO\[31\]
*516 ANTENNA_i_sram_DO\[3\]
*517 ANTENNA_i_sram_DO\[4\]
*518 ANTENNA_i_sram_DO\[5\]
*519 ANTENNA_i_sram_DO\[6\]
*520 ANTENNA_i_sram_DO\[7\]
*521 ANTENNA_i_sram_DO\[8\]
*522 ANTENNA_i_sram_DO\[9\]
*523 ANTENNA_i_sram_EN
*524 ANTENNA_i_sram_R_WB
*525 ANTENNA_input10_A
*526 ANTENNA_input10_X
*527 ANTENNA_input11_A
*528 ANTENNA_input11_X
*529 ANTENNA_input12_A
*530 ANTENNA_input12_X
*531 ANTENNA_input13_A
*532 ANTENNA_input13_X
*533 ANTENNA_input14_A
*534 ANTENNA_input14_X
*535 ANTENNA_input15_A
*536 ANTENNA_input15_X
*537 ANTENNA_input16_A
*538 ANTENNA_input16_X
*539 ANTENNA_input17_A
*540 ANTENNA_input17_X
*541 ANTENNA_input18_A
*542 ANTENNA_input18_X
*543 ANTENNA_input19_A
*544 ANTENNA_input19_X
*545 ANTENNA_input1_A
*546 ANTENNA_input20_A
*547 ANTENNA_input20_X
*548 ANTENNA_input21_A
*549 ANTENNA_input21_X
*550 ANTENNA_input22_A
*551 ANTENNA_input22_X
*552 ANTENNA_input23_A
*553 ANTENNA_input23_X
*554 ANTENNA_input24_A
*555 ANTENNA_input24_X
*556 ANTENNA_input25_A
*557 ANTENNA_input25_X
*558 ANTENNA_input26_A
*559 ANTENNA_input26_X
*560 ANTENNA_input27_A
*561 ANTENNA_input27_X
*562 ANTENNA_input28_A
*563 ANTENNA_input28_X
*564 ANTENNA_input29_A
*565 ANTENNA_input29_X
*566 ANTENNA_input2_A
*567 ANTENNA_input2_X
*568 ANTENNA_input30_A
*569 ANTENNA_input30_X
*570 ANTENNA_input31_A
*571 ANTENNA_input31_X
*572 ANTENNA_input32_A
*573 ANTENNA_input32_X
*574 ANTENNA_input33_A
*575 ANTENNA_input33_X
*576 ANTENNA_input34_A
*577 ANTENNA_input34_X
*578 ANTENNA_input35_A
*579 ANTENNA_input35_X
*580 ANTENNA_input36_A
*581 ANTENNA_input36_X
*582 ANTENNA_input37_A
*583 ANTENNA_input37_X
*584 ANTENNA_input38_A
*585 ANTENNA_input38_X
*586 ANTENNA_input39_A
*587 ANTENNA_input39_X
*588 ANTENNA_input3_A
*589 ANTENNA_input3_X
*590 ANTENNA_input40_A
*591 ANTENNA_input40_X
*592 ANTENNA_input41_A
*593 ANTENNA_input41_X
*594 ANTENNA_input42_A
*595 ANTENNA_input42_X
*596 ANTENNA_input43_A
*597 ANTENNA_input43_X
*598 ANTENNA_input44_A
*599 ANTENNA_input44_X
*600 ANTENNA_input45_A
*601 ANTENNA_input45_X
*602 ANTENNA_input46_A
*603 ANTENNA_input46_X
*604 ANTENNA_input47_A
*605 ANTENNA_input47_X
*606 ANTENNA_input48_A
*607 ANTENNA_input48_X
*608 ANTENNA_input49_A
*609 ANTENNA_input4_A
*610 ANTENNA_input4_X
*611 ANTENNA_input50_A
*612 ANTENNA_input50_X
*613 ANTENNA_input5_A
*614 ANTENNA_input5_X
*615 ANTENNA_input6_A
*616 ANTENNA_input6_X
*617 ANTENNA_input7_A
*618 ANTENNA_input7_X
*619 ANTENNA_input8_A
*620 ANTENNA_input8_X
*621 ANTENNA_input9_A
*622 ANTENNA_input9_X
*623 ANTENNA_output52_A
*624 ANTENNA_output53_A
*625 ANTENNA_output54_A
*626 ANTENNA_output55_A
*627 ANTENNA_output56_A
*628 ANTENNA_output57_A
*629 ANTENNA_output58_A
*630 ANTENNA_output59_A
*631 ANTENNA_output60_A
*632 ANTENNA_output61_A
*633 ANTENNA_output63_A
*634 ANTENNA_output64_A
*635 ANTENNA_output74_A
*636 ANTENNA_output77_A
*637 ANTENNA_output78_A
*638 ANTENNA_output79_A
*639 ANTENNA_output80_A
*640 ANTENNA_output81_A
*641 ANTENNA_output82_A
*642 ANTENNA_output83_A
*643 FILLER_0_109
*644 FILLER_0_111
*645 FILLER_0_113
*646 FILLER_0_125
*647 FILLER_0_137
*648 FILLER_0_139
*649 FILLER_0_141
*650 FILLER_0_15
*651 FILLER_0_153
*652 FILLER_0_165
*653 FILLER_0_167
*654 FILLER_0_169
*655 FILLER_0_186
*656 FILLER_0_194
*657 FILLER_0_215
*658 FILLER_0_225
*659 FILLER_0_27
*660 FILLER_0_271
*661 FILLER_0_279
*662 FILLER_0_281
*663 FILLER_0_29
*664 FILLER_0_293
*665 FILLER_0_3
*666 FILLER_0_305
*667 FILLER_0_307
*668 FILLER_0_309
*669 FILLER_0_321
*670 FILLER_0_333
*671 FILLER_0_335
*672 FILLER_0_337
*673 FILLER_0_349
*674 FILLER_0_361
*675 FILLER_0_363
*676 FILLER_0_365
*677 FILLER_0_377
*678 FILLER_0_381
*679 FILLER_0_391
*680 FILLER_0_41
*681 FILLER_0_419
*682 FILLER_0_447
*683 FILLER_0_475
*684 FILLER_0_503
*685 FILLER_0_53
*686 FILLER_0_531
*687 FILLER_0_55
*688 FILLER_0_559
*689 FILLER_0_57
*690 FILLER_0_587
*691 FILLER_0_607
*692 FILLER_0_611
*693 FILLER_0_613
*694 FILLER_0_633
*695 FILLER_0_641
*696 FILLER_0_661
*697 FILLER_0_669
*698 FILLER_0_69
*699 FILLER_0_691
*700 FILLER_0_695
*701 FILLER_0_697
*702 FILLER_0_717
*703 FILLER_0_725
*704 FILLER_0_745
*705 FILLER_0_753
*706 FILLER_0_755
*707 FILLER_0_773
*708 FILLER_0_777
*709 FILLER_0_81
*710 FILLER_0_83
*711 FILLER_0_85
*712 FILLER_0_97
*713 FILLER_100_703
*714 FILLER_100_715
*715 FILLER_100_727
*716 FILLER_100_729
*717 FILLER_100_741
*718 FILLER_100_753
*719 FILLER_100_765
*720 FILLER_100_777
*721 FILLER_100_781
*722 FILLER_100_783
*723 FILLER_100_785
*724 FILLER_100_797
*725 FILLER_101_705
*726 FILLER_101_717
*727 FILLER_101_729
*728 FILLER_101_741
*729 FILLER_101_753
*730 FILLER_101_755
*731 FILLER_101_757
*732 FILLER_101_769
*733 FILLER_101_781
*734 FILLER_101_793
*735 FILLER_102_705
*736 FILLER_102_717
*737 FILLER_102_725
*738 FILLER_102_727
*739 FILLER_102_729
*740 FILLER_102_741
*741 FILLER_102_753
*742 FILLER_102_765
*743 FILLER_102_777
*744 FILLER_102_781
*745 FILLER_102_783
*746 FILLER_102_785
*747 FILLER_102_797
*748 FILLER_103_705
*749 FILLER_103_717
*750 FILLER_103_729
*751 FILLER_103_741
*752 FILLER_103_753
*753 FILLER_103_755
*754 FILLER_103_757
*755 FILLER_103_769
*756 FILLER_103_781
*757 FILLER_103_793
*758 FILLER_104_703
*759 FILLER_104_715
*760 FILLER_104_727
*761 FILLER_104_729
*762 FILLER_104_741
*763 FILLER_104_753
*764 FILLER_104_765
*765 FILLER_104_777
*766 FILLER_104_781
*767 FILLER_104_783
*768 FILLER_104_785
*769 FILLER_104_797
*770 FILLER_105_705
*771 FILLER_105_717
*772 FILLER_105_729
*773 FILLER_105_741
*774 FILLER_105_753
*775 FILLER_105_755
*776 FILLER_105_757
*777 FILLER_105_769
*778 FILLER_105_781
*779 FILLER_105_793
*780 FILLER_106_705
*781 FILLER_106_717
*782 FILLER_106_725
*783 FILLER_106_727
*784 FILLER_106_729
*785 FILLER_106_741
*786 FILLER_106_753
*787 FILLER_106_765
*788 FILLER_106_777
*789 FILLER_106_781
*790 FILLER_106_783
*791 FILLER_106_785
*792 FILLER_106_797
*793 FILLER_107_705
*794 FILLER_107_717
*795 FILLER_107_729
*796 FILLER_107_741
*797 FILLER_107_753
*798 FILLER_107_755
*799 FILLER_107_757
*800 FILLER_107_769
*801 FILLER_107_781
*802 FILLER_107_793
*803 FILLER_108_703
*804 FILLER_108_715
*805 FILLER_108_727
*806 FILLER_108_729
*807 FILLER_108_741
*808 FILLER_108_753
*809 FILLER_108_765
*810 FILLER_108_777
*811 FILLER_108_781
*812 FILLER_108_783
*813 FILLER_108_785
*814 FILLER_108_797
*815 FILLER_109_705
*816 FILLER_109_717
*817 FILLER_109_729
*818 FILLER_109_741
*819 FILLER_109_753
*820 FILLER_109_755
*821 FILLER_109_757
*822 FILLER_109_769
*823 FILLER_109_781
*824 FILLER_109_793
*825 FILLER_10_703
*826 FILLER_10_715
*827 FILLER_10_727
*828 FILLER_10_729
*829 FILLER_10_741
*830 FILLER_10_753
*831 FILLER_10_765
*832 FILLER_10_777
*833 FILLER_10_781
*834 FILLER_10_783
*835 FILLER_10_785
*836 FILLER_10_797
*837 FILLER_110_703
*838 FILLER_110_715
*839 FILLER_110_727
*840 FILLER_110_729
*841 FILLER_110_741
*842 FILLER_110_753
*843 FILLER_110_765
*844 FILLER_110_777
*845 FILLER_110_781
*846 FILLER_110_783
*847 FILLER_110_785
*848 FILLER_110_797
*849 FILLER_111_707
*850 FILLER_111_719
*851 FILLER_111_731
*852 FILLER_111_743
*853 FILLER_111_755
*854 FILLER_111_757
*855 FILLER_111_769
*856 FILLER_111_781
*857 FILLER_111_793
*858 FILLER_112_703
*859 FILLER_112_715
*860 FILLER_112_727
*861 FILLER_112_729
*862 FILLER_112_741
*863 FILLER_112_753
*864 FILLER_112_765
*865 FILLER_112_777
*866 FILLER_112_781
*867 FILLER_112_783
*868 FILLER_112_785
*869 FILLER_112_797
*870 FILLER_113_705
*871 FILLER_113_717
*872 FILLER_113_729
*873 FILLER_113_741
*874 FILLER_113_753
*875 FILLER_113_755
*876 FILLER_113_757
*877 FILLER_113_769
*878 FILLER_113_781
*879 FILLER_113_793
*880 FILLER_114_703
*881 FILLER_114_715
*882 FILLER_114_727
*883 FILLER_114_729
*884 FILLER_114_741
*885 FILLER_114_753
*886 FILLER_114_765
*887 FILLER_114_777
*888 FILLER_114_781
*889 FILLER_114_783
*890 FILLER_114_785
*891 FILLER_114_797
*892 FILLER_115_707
*893 FILLER_115_719
*894 FILLER_115_731
*895 FILLER_115_743
*896 FILLER_115_755
*897 FILLER_115_757
*898 FILLER_115_769
*899 FILLER_115_781
*900 FILLER_115_793
*901 FILLER_116_703
*902 FILLER_116_715
*903 FILLER_116_727
*904 FILLER_116_729
*905 FILLER_116_741
*906 FILLER_116_753
*907 FILLER_116_765
*908 FILLER_116_777
*909 FILLER_116_781
*910 FILLER_116_783
*911 FILLER_116_785
*912 FILLER_116_797
*913 FILLER_117_705
*914 FILLER_117_717
*915 FILLER_117_729
*916 FILLER_117_741
*917 FILLER_117_753
*918 FILLER_117_755
*919 FILLER_117_757
*920 FILLER_117_769
*921 FILLER_117_781
*922 FILLER_117_793
*923 FILLER_118_703
*924 FILLER_118_715
*925 FILLER_118_727
*926 FILLER_118_729
*927 FILLER_118_741
*928 FILLER_118_753
*929 FILLER_118_765
*930 FILLER_118_777
*931 FILLER_118_781
*932 FILLER_118_783
*933 FILLER_118_785
*934 FILLER_118_797
*935 FILLER_119_707
*936 FILLER_119_719
*937 FILLER_119_731
*938 FILLER_119_743
*939 FILLER_119_755
*940 FILLER_119_757
*941 FILLER_119_769
*942 FILLER_119_781
*943 FILLER_119_793
*944 FILLER_11_703
*945 FILLER_11_715
*946 FILLER_11_727
*947 FILLER_11_739
*948 FILLER_11_751
*949 FILLER_11_755
*950 FILLER_11_757
*951 FILLER_11_769
*952 FILLER_11_781
*953 FILLER_11_793
*954 FILLER_120_703
*955 FILLER_120_715
*956 FILLER_120_727
*957 FILLER_120_729
*958 FILLER_120_741
*959 FILLER_120_753
*960 FILLER_120_765
*961 FILLER_120_777
*962 FILLER_120_781
*963 FILLER_120_783
*964 FILLER_120_785
*965 FILLER_120_797
*966 FILLER_121_705
*967 FILLER_121_717
*968 FILLER_121_729
*969 FILLER_121_741
*970 FILLER_121_753
*971 FILLER_121_755
*972 FILLER_121_757
*973 FILLER_121_769
*974 FILLER_121_781
*975 FILLER_121_793
*976 FILLER_122_703
*977 FILLER_122_715
*978 FILLER_122_727
*979 FILLER_122_729
*980 FILLER_122_741
*981 FILLER_122_753
*982 FILLER_122_765
*983 FILLER_122_777
*984 FILLER_122_781
*985 FILLER_122_783
*986 FILLER_122_785
*987 FILLER_122_797
*988 FILLER_123_707
*989 FILLER_123_719
*990 FILLER_123_731
*991 FILLER_123_743
*992 FILLER_123_755
*993 FILLER_123_757
*994 FILLER_123_769
*995 FILLER_123_781
*996 FILLER_123_793
*997 FILLER_124_703
*998 FILLER_124_715
*999 FILLER_124_727
*1000 FILLER_124_729
*1001 FILLER_124_741
*1002 FILLER_124_753
*1003 FILLER_124_765
*1004 FILLER_124_777
*1005 FILLER_124_781
*1006 FILLER_124_783
*1007 FILLER_124_785
*1008 FILLER_124_797
*1009 FILLER_125_705
*1010 FILLER_125_717
*1011 FILLER_125_729
*1012 FILLER_125_741
*1013 FILLER_125_753
*1014 FILLER_125_755
*1015 FILLER_125_757
*1016 FILLER_125_769
*1017 FILLER_125_781
*1018 FILLER_125_793
*1019 FILLER_126_703
*1020 FILLER_126_715
*1021 FILLER_126_727
*1022 FILLER_126_729
*1023 FILLER_126_741
*1024 FILLER_126_753
*1025 FILLER_126_765
*1026 FILLER_126_777
*1027 FILLER_126_781
*1028 FILLER_126_783
*1029 FILLER_126_785
*1030 FILLER_126_797
*1031 FILLER_127_707
*1032 FILLER_127_719
*1033 FILLER_127_731
*1034 FILLER_127_743
*1035 FILLER_127_755
*1036 FILLER_127_757
*1037 FILLER_127_769
*1038 FILLER_127_781
*1039 FILLER_127_793
*1040 FILLER_128_703
*1041 FILLER_128_715
*1042 FILLER_128_727
*1043 FILLER_128_729
*1044 FILLER_128_741
*1045 FILLER_128_753
*1046 FILLER_128_765
*1047 FILLER_128_777
*1048 FILLER_128_781
*1049 FILLER_128_783
*1050 FILLER_128_785
*1051 FILLER_128_797
*1052 FILLER_129_705
*1053 FILLER_129_717
*1054 FILLER_129_729
*1055 FILLER_129_741
*1056 FILLER_129_753
*1057 FILLER_129_755
*1058 FILLER_129_757
*1059 FILLER_129_769
*1060 FILLER_129_781
*1061 FILLER_129_793
*1062 FILLER_12_703
*1063 FILLER_12_715
*1064 FILLER_12_727
*1065 FILLER_12_729
*1066 FILLER_12_741
*1067 FILLER_12_753
*1068 FILLER_12_765
*1069 FILLER_12_777
*1070 FILLER_12_781
*1071 FILLER_12_783
*1072 FILLER_12_785
*1073 FILLER_12_797
*1074 FILLER_130_703
*1075 FILLER_130_715
*1076 FILLER_130_727
*1077 FILLER_130_729
*1078 FILLER_130_741
*1079 FILLER_130_753
*1080 FILLER_130_765
*1081 FILLER_130_777
*1082 FILLER_130_781
*1083 FILLER_130_783
*1084 FILLER_130_785
*1085 FILLER_130_797
*1086 FILLER_131_707
*1087 FILLER_131_719
*1088 FILLER_131_731
*1089 FILLER_131_743
*1090 FILLER_131_755
*1091 FILLER_131_757
*1092 FILLER_131_769
*1093 FILLER_131_781
*1094 FILLER_131_793
*1095 FILLER_132_703
*1096 FILLER_132_715
*1097 FILLER_132_727
*1098 FILLER_132_729
*1099 FILLER_132_741
*1100 FILLER_132_753
*1101 FILLER_132_765
*1102 FILLER_132_777
*1103 FILLER_132_781
*1104 FILLER_132_783
*1105 FILLER_132_785
*1106 FILLER_132_797
*1107 FILLER_133_705
*1108 FILLER_133_717
*1109 FILLER_133_729
*1110 FILLER_133_741
*1111 FILLER_133_753
*1112 FILLER_133_755
*1113 FILLER_133_757
*1114 FILLER_133_769
*1115 FILLER_133_781
*1116 FILLER_133_793
*1117 FILLER_134_703
*1118 FILLER_134_715
*1119 FILLER_134_727
*1120 FILLER_134_729
*1121 FILLER_134_741
*1122 FILLER_134_753
*1123 FILLER_134_765
*1124 FILLER_134_777
*1125 FILLER_134_781
*1126 FILLER_134_783
*1127 FILLER_134_785
*1128 FILLER_134_797
*1129 FILLER_135_707
*1130 FILLER_135_719
*1131 FILLER_135_731
*1132 FILLER_135_743
*1133 FILLER_135_755
*1134 FILLER_135_757
*1135 FILLER_135_769
*1136 FILLER_135_781
*1137 FILLER_135_793
*1138 FILLER_136_703
*1139 FILLER_136_715
*1140 FILLER_136_727
*1141 FILLER_136_729
*1142 FILLER_136_741
*1143 FILLER_136_753
*1144 FILLER_136_765
*1145 FILLER_136_777
*1146 FILLER_136_781
*1147 FILLER_136_783
*1148 FILLER_136_785
*1149 FILLER_136_797
*1150 FILLER_137_705
*1151 FILLER_137_717
*1152 FILLER_137_729
*1153 FILLER_137_741
*1154 FILLER_137_753
*1155 FILLER_137_755
*1156 FILLER_137_757
*1157 FILLER_137_769
*1158 FILLER_137_781
*1159 FILLER_137_793
*1160 FILLER_138_703
*1161 FILLER_138_715
*1162 FILLER_138_727
*1163 FILLER_138_729
*1164 FILLER_138_741
*1165 FILLER_138_753
*1166 FILLER_138_765
*1167 FILLER_138_777
*1168 FILLER_138_781
*1169 FILLER_138_783
*1170 FILLER_138_785
*1171 FILLER_138_797
*1172 FILLER_139_707
*1173 FILLER_139_719
*1174 FILLER_139_731
*1175 FILLER_139_743
*1176 FILLER_139_755
*1177 FILLER_139_757
*1178 FILLER_139_769
*1179 FILLER_139_781
*1180 FILLER_139_793
*1181 FILLER_13_703
*1182 FILLER_13_715
*1183 FILLER_13_727
*1184 FILLER_13_739
*1185 FILLER_13_751
*1186 FILLER_13_755
*1187 FILLER_13_757
*1188 FILLER_13_769
*1189 FILLER_13_781
*1190 FILLER_13_793
*1191 FILLER_140_703
*1192 FILLER_140_715
*1193 FILLER_140_727
*1194 FILLER_140_729
*1195 FILLER_140_741
*1196 FILLER_140_753
*1197 FILLER_140_765
*1198 FILLER_140_777
*1199 FILLER_140_781
*1200 FILLER_140_783
*1201 FILLER_140_785
*1202 FILLER_140_797
*1203 FILLER_141_705
*1204 FILLER_141_717
*1205 FILLER_141_729
*1206 FILLER_141_741
*1207 FILLER_141_753
*1208 FILLER_141_755
*1209 FILLER_141_757
*1210 FILLER_141_769
*1211 FILLER_141_781
*1212 FILLER_141_793
*1213 FILLER_142_703
*1214 FILLER_142_715
*1215 FILLER_142_727
*1216 FILLER_142_729
*1217 FILLER_142_741
*1218 FILLER_142_753
*1219 FILLER_142_765
*1220 FILLER_142_777
*1221 FILLER_142_781
*1222 FILLER_142_783
*1223 FILLER_142_785
*1224 FILLER_142_797
*1225 FILLER_143_707
*1226 FILLER_143_719
*1227 FILLER_143_731
*1228 FILLER_143_743
*1229 FILLER_143_755
*1230 FILLER_143_757
*1231 FILLER_143_769
*1232 FILLER_143_781
*1233 FILLER_143_793
*1234 FILLER_144_703
*1235 FILLER_144_715
*1236 FILLER_144_727
*1237 FILLER_144_729
*1238 FILLER_144_741
*1239 FILLER_144_753
*1240 FILLER_144_765
*1241 FILLER_144_777
*1242 FILLER_144_781
*1243 FILLER_144_783
*1244 FILLER_144_785
*1245 FILLER_144_797
*1246 FILLER_145_705
*1247 FILLER_145_717
*1248 FILLER_145_729
*1249 FILLER_145_741
*1250 FILLER_145_753
*1251 FILLER_145_755
*1252 FILLER_145_757
*1253 FILLER_145_769
*1254 FILLER_145_781
*1255 FILLER_145_793
*1256 FILLER_146_703
*1257 FILLER_146_715
*1258 FILLER_146_727
*1259 FILLER_146_729
*1260 FILLER_146_741
*1261 FILLER_146_753
*1262 FILLER_146_765
*1263 FILLER_146_777
*1264 FILLER_146_781
*1265 FILLER_146_783
*1266 FILLER_146_785
*1267 FILLER_146_797
*1268 FILLER_147_707
*1269 FILLER_147_719
*1270 FILLER_147_731
*1271 FILLER_147_743
*1272 FILLER_147_755
*1273 FILLER_147_757
*1274 FILLER_147_769
*1275 FILLER_147_781
*1276 FILLER_147_793
*1277 FILLER_148_703
*1278 FILLER_148_715
*1279 FILLER_148_727
*1280 FILLER_148_729
*1281 FILLER_148_741
*1282 FILLER_148_753
*1283 FILLER_148_765
*1284 FILLER_148_777
*1285 FILLER_148_781
*1286 FILLER_148_783
*1287 FILLER_148_785
*1288 FILLER_148_797
*1289 FILLER_149_705
*1290 FILLER_149_717
*1291 FILLER_149_729
*1292 FILLER_149_741
*1293 FILLER_149_753
*1294 FILLER_149_755
*1295 FILLER_149_757
*1296 FILLER_149_769
*1297 FILLER_149_781
*1298 FILLER_149_793
*1299 FILLER_14_703
*1300 FILLER_14_715
*1301 FILLER_14_727
*1302 FILLER_14_729
*1303 FILLER_14_741
*1304 FILLER_14_753
*1305 FILLER_14_765
*1306 FILLER_14_777
*1307 FILLER_14_781
*1308 FILLER_14_783
*1309 FILLER_14_785
*1310 FILLER_14_797
*1311 FILLER_150_703
*1312 FILLER_150_715
*1313 FILLER_150_727
*1314 FILLER_150_729
*1315 FILLER_150_741
*1316 FILLER_150_753
*1317 FILLER_150_765
*1318 FILLER_150_777
*1319 FILLER_150_781
*1320 FILLER_150_783
*1321 FILLER_150_785
*1322 FILLER_150_797
*1323 FILLER_151_707
*1324 FILLER_151_719
*1325 FILLER_151_731
*1326 FILLER_151_743
*1327 FILLER_151_755
*1328 FILLER_151_757
*1329 FILLER_151_769
*1330 FILLER_151_781
*1331 FILLER_151_793
*1332 FILLER_152_703
*1333 FILLER_152_715
*1334 FILLER_152_727
*1335 FILLER_152_729
*1336 FILLER_152_741
*1337 FILLER_152_753
*1338 FILLER_152_765
*1339 FILLER_152_777
*1340 FILLER_152_781
*1341 FILLER_152_783
*1342 FILLER_152_785
*1343 FILLER_152_797
*1344 FILLER_153_705
*1345 FILLER_153_717
*1346 FILLER_153_729
*1347 FILLER_153_741
*1348 FILLER_153_753
*1349 FILLER_153_755
*1350 FILLER_153_757
*1351 FILLER_153_769
*1352 FILLER_153_781
*1353 FILLER_153_793
*1354 FILLER_154_703
*1355 FILLER_154_715
*1356 FILLER_154_727
*1357 FILLER_154_729
*1358 FILLER_154_741
*1359 FILLER_154_753
*1360 FILLER_154_765
*1361 FILLER_154_777
*1362 FILLER_154_781
*1363 FILLER_154_783
*1364 FILLER_154_785
*1365 FILLER_154_797
*1366 FILLER_155_703
*1367 FILLER_155_715
*1368 FILLER_155_727
*1369 FILLER_155_729
*1370 FILLER_155_741
*1371 FILLER_155_753
*1372 FILLER_155_755
*1373 FILLER_155_757
*1374 FILLER_155_769
*1375 FILLER_155_781
*1376 FILLER_155_783
*1377 FILLER_155_785
*1378 FILLER_155_797
*1379 FILLER_15_705
*1380 FILLER_15_717
*1381 FILLER_15_729
*1382 FILLER_15_741
*1383 FILLER_15_753
*1384 FILLER_15_755
*1385 FILLER_15_757
*1386 FILLER_15_769
*1387 FILLER_15_781
*1388 FILLER_15_793
*1389 FILLER_16_703
*1390 FILLER_16_715
*1391 FILLER_16_727
*1392 FILLER_16_729
*1393 FILLER_16_741
*1394 FILLER_16_753
*1395 FILLER_16_765
*1396 FILLER_16_777
*1397 FILLER_16_781
*1398 FILLER_16_783
*1399 FILLER_16_785
*1400 FILLER_16_797
*1401 FILLER_17_707
*1402 FILLER_17_719
*1403 FILLER_17_731
*1404 FILLER_17_743
*1405 FILLER_17_755
*1406 FILLER_17_757
*1407 FILLER_17_769
*1408 FILLER_17_781
*1409 FILLER_17_793
*1410 FILLER_18_703
*1411 FILLER_18_715
*1412 FILLER_18_727
*1413 FILLER_18_729
*1414 FILLER_18_741
*1415 FILLER_18_753
*1416 FILLER_18_765
*1417 FILLER_18_777
*1418 FILLER_18_781
*1419 FILLER_18_783
*1420 FILLER_18_785
*1421 FILLER_18_797
*1422 FILLER_19_705
*1423 FILLER_19_717
*1424 FILLER_19_729
*1425 FILLER_19_741
*1426 FILLER_19_753
*1427 FILLER_19_755
*1428 FILLER_19_757
*1429 FILLER_19_769
*1430 FILLER_19_781
*1431 FILLER_19_793
*1432 FILLER_1_105
*1433 FILLER_1_109
*1434 FILLER_1_111
*1435 FILLER_1_113
*1436 FILLER_1_125
*1437 FILLER_1_137
*1438 FILLER_1_149
*1439 FILLER_1_15
*1440 FILLER_1_161
*1441 FILLER_1_165
*1442 FILLER_1_167
*1443 FILLER_1_169
*1444 FILLER_1_181
*1445 FILLER_1_193
*1446 FILLER_1_221
*1447 FILLER_1_233
*1448 FILLER_1_238
*1449 FILLER_1_244
*1450 FILLER_1_250
*1451 FILLER_1_252
*1452 FILLER_1_257
*1453 FILLER_1_261
*1454 FILLER_1_27
*1455 FILLER_1_273
*1456 FILLER_1_277
*1457 FILLER_1_279
*1458 FILLER_1_281
*1459 FILLER_1_293
*1460 FILLER_1_3
*1461 FILLER_1_305
*1462 FILLER_1_317
*1463 FILLER_1_329
*1464 FILLER_1_333
*1465 FILLER_1_335
*1466 FILLER_1_337
*1467 FILLER_1_349
*1468 FILLER_1_361
*1469 FILLER_1_373
*1470 FILLER_1_385
*1471 FILLER_1_389
*1472 FILLER_1_39
*1473 FILLER_1_391
*1474 FILLER_1_395
*1475 FILLER_1_401
*1476 FILLER_1_407
*1477 FILLER_1_411
*1478 FILLER_1_415
*1479 FILLER_1_421
*1480 FILLER_1_429
*1481 FILLER_1_435
*1482 FILLER_1_441
*1483 FILLER_1_447
*1484 FILLER_1_451
*1485 FILLER_1_457
*1486 FILLER_1_463
*1487 FILLER_1_473
*1488 FILLER_1_491
*1489 FILLER_1_497
*1490 FILLER_1_503
*1491 FILLER_1_507
*1492 FILLER_1_51
*1493 FILLER_1_513
*1494 FILLER_1_519
*1495 FILLER_1_525
*1496 FILLER_1_533
*1497 FILLER_1_541
*1498 FILLER_1_55
*1499 FILLER_1_559
*1500 FILLER_1_569
*1501 FILLER_1_57
*1502 FILLER_1_575
*1503 FILLER_1_607
*1504 FILLER_1_611
*1505 FILLER_1_613
*1506 FILLER_1_669
*1507 FILLER_1_69
*1508 FILLER_1_723
*1509 FILLER_1_727
*1510 FILLER_1_777
*1511 FILLER_1_779
*1512 FILLER_1_81
*1513 FILLER_1_93
*1514 FILLER_20_703
*1515 FILLER_20_715
*1516 FILLER_20_727
*1517 FILLER_20_729
*1518 FILLER_20_741
*1519 FILLER_20_753
*1520 FILLER_20_765
*1521 FILLER_20_777
*1522 FILLER_20_781
*1523 FILLER_20_783
*1524 FILLER_20_785
*1525 FILLER_20_797
*1526 FILLER_21_707
*1527 FILLER_21_719
*1528 FILLER_21_731
*1529 FILLER_21_743
*1530 FILLER_21_755
*1531 FILLER_21_757
*1532 FILLER_21_769
*1533 FILLER_21_781
*1534 FILLER_21_793
*1535 FILLER_22_703
*1536 FILLER_22_715
*1537 FILLER_22_727
*1538 FILLER_22_729
*1539 FILLER_22_741
*1540 FILLER_22_753
*1541 FILLER_22_765
*1542 FILLER_22_777
*1543 FILLER_22_781
*1544 FILLER_22_783
*1545 FILLER_22_785
*1546 FILLER_22_797
*1547 FILLER_23_705
*1548 FILLER_23_717
*1549 FILLER_23_729
*1550 FILLER_23_741
*1551 FILLER_23_753
*1552 FILLER_23_755
*1553 FILLER_23_757
*1554 FILLER_23_769
*1555 FILLER_23_781
*1556 FILLER_23_793
*1557 FILLER_24_703
*1558 FILLER_24_715
*1559 FILLER_24_727
*1560 FILLER_24_729
*1561 FILLER_24_741
*1562 FILLER_24_753
*1563 FILLER_24_765
*1564 FILLER_24_777
*1565 FILLER_24_781
*1566 FILLER_24_783
*1567 FILLER_24_785
*1568 FILLER_24_797
*1569 FILLER_25_707
*1570 FILLER_25_719
*1571 FILLER_25_731
*1572 FILLER_25_743
*1573 FILLER_25_755
*1574 FILLER_25_757
*1575 FILLER_25_769
*1576 FILLER_25_781
*1577 FILLER_25_793
*1578 FILLER_26_703
*1579 FILLER_26_715
*1580 FILLER_26_727
*1581 FILLER_26_729
*1582 FILLER_26_741
*1583 FILLER_26_753
*1584 FILLER_26_765
*1585 FILLER_26_777
*1586 FILLER_26_781
*1587 FILLER_26_783
*1588 FILLER_26_785
*1589 FILLER_26_797
*1590 FILLER_27_705
*1591 FILLER_27_717
*1592 FILLER_27_729
*1593 FILLER_27_741
*1594 FILLER_27_753
*1595 FILLER_27_755
*1596 FILLER_27_757
*1597 FILLER_27_769
*1598 FILLER_27_781
*1599 FILLER_27_793
*1600 FILLER_28_703
*1601 FILLER_28_715
*1602 FILLER_28_727
*1603 FILLER_28_729
*1604 FILLER_28_741
*1605 FILLER_28_753
*1606 FILLER_28_765
*1607 FILLER_28_777
*1608 FILLER_28_781
*1609 FILLER_28_783
*1610 FILLER_28_785
*1611 FILLER_28_797
*1612 FILLER_29_707
*1613 FILLER_29_719
*1614 FILLER_29_731
*1615 FILLER_29_743
*1616 FILLER_29_755
*1617 FILLER_29_757
*1618 FILLER_29_769
*1619 FILLER_29_781
*1620 FILLER_29_793
*1621 FILLER_2_109
*1622 FILLER_2_121
*1623 FILLER_2_133
*1624 FILLER_2_137
*1625 FILLER_2_139
*1626 FILLER_2_141
*1627 FILLER_2_15
*1628 FILLER_2_153
*1629 FILLER_2_165
*1630 FILLER_2_177
*1631 FILLER_2_189
*1632 FILLER_2_193
*1633 FILLER_2_195
*1634 FILLER_2_197
*1635 FILLER_2_209
*1636 FILLER_2_213
*1637 FILLER_2_225
*1638 FILLER_2_237
*1639 FILLER_2_249
*1640 FILLER_2_251
*1641 FILLER_2_253
*1642 FILLER_2_265
*1643 FILLER_2_27
*1644 FILLER_2_277
*1645 FILLER_2_289
*1646 FILLER_2_29
*1647 FILLER_2_3
*1648 FILLER_2_301
*1649 FILLER_2_305
*1650 FILLER_2_307
*1651 FILLER_2_309
*1652 FILLER_2_321
*1653 FILLER_2_333
*1654 FILLER_2_345
*1655 FILLER_2_357
*1656 FILLER_2_361
*1657 FILLER_2_363
*1658 FILLER_2_365
*1659 FILLER_2_377
*1660 FILLER_2_389
*1661 FILLER_2_401
*1662 FILLER_2_41
*1663 FILLER_2_413
*1664 FILLER_2_417
*1665 FILLER_2_419
*1666 FILLER_2_421
*1667 FILLER_2_433
*1668 FILLER_2_445
*1669 FILLER_2_457
*1670 FILLER_2_469
*1671 FILLER_2_473
*1672 FILLER_2_475
*1673 FILLER_2_477
*1674 FILLER_2_489
*1675 FILLER_2_501
*1676 FILLER_2_513
*1677 FILLER_2_525
*1678 FILLER_2_529
*1679 FILLER_2_53
*1680 FILLER_2_531
*1681 FILLER_2_533
*1682 FILLER_2_545
*1683 FILLER_2_557
*1684 FILLER_2_569
*1685 FILLER_2_581
*1686 FILLER_2_587
*1687 FILLER_2_589
*1688 FILLER_2_593
*1689 FILLER_2_633
*1690 FILLER_2_641
*1691 FILLER_2_65
*1692 FILLER_2_693
*1693 FILLER_2_697
*1694 FILLER_2_749
*1695 FILLER_2_753
*1696 FILLER_2_755
*1697 FILLER_2_77
*1698 FILLER_2_795
*1699 FILLER_2_81
*1700 FILLER_2_83
*1701 FILLER_2_85
*1702 FILLER_2_97
*1703 FILLER_30_703
*1704 FILLER_30_715
*1705 FILLER_30_727
*1706 FILLER_30_729
*1707 FILLER_30_741
*1708 FILLER_30_753
*1709 FILLER_30_765
*1710 FILLER_30_777
*1711 FILLER_30_781
*1712 FILLER_30_783
*1713 FILLER_30_785
*1714 FILLER_30_797
*1715 FILLER_31_705
*1716 FILLER_31_717
*1717 FILLER_31_729
*1718 FILLER_31_741
*1719 FILLER_31_753
*1720 FILLER_31_755
*1721 FILLER_31_757
*1722 FILLER_31_769
*1723 FILLER_31_781
*1724 FILLER_31_793
*1725 FILLER_32_703
*1726 FILLER_32_715
*1727 FILLER_32_727
*1728 FILLER_32_729
*1729 FILLER_32_741
*1730 FILLER_32_753
*1731 FILLER_32_765
*1732 FILLER_32_777
*1733 FILLER_32_781
*1734 FILLER_32_783
*1735 FILLER_32_785
*1736 FILLER_32_797
*1737 FILLER_33_707
*1738 FILLER_33_719
*1739 FILLER_33_731
*1740 FILLER_33_743
*1741 FILLER_33_755
*1742 FILLER_33_757
*1743 FILLER_33_769
*1744 FILLER_33_781
*1745 FILLER_33_793
*1746 FILLER_34_703
*1747 FILLER_34_715
*1748 FILLER_34_727
*1749 FILLER_34_729
*1750 FILLER_34_741
*1751 FILLER_34_753
*1752 FILLER_34_765
*1753 FILLER_34_777
*1754 FILLER_34_781
*1755 FILLER_34_783
*1756 FILLER_34_785
*1757 FILLER_34_797
*1758 FILLER_35_705
*1759 FILLER_35_717
*1760 FILLER_35_729
*1761 FILLER_35_741
*1762 FILLER_35_753
*1763 FILLER_35_755
*1764 FILLER_35_757
*1765 FILLER_35_769
*1766 FILLER_35_781
*1767 FILLER_35_793
*1768 FILLER_36_703
*1769 FILLER_36_715
*1770 FILLER_36_727
*1771 FILLER_36_729
*1772 FILLER_36_741
*1773 FILLER_36_753
*1774 FILLER_36_765
*1775 FILLER_36_777
*1776 FILLER_36_781
*1777 FILLER_36_783
*1778 FILLER_36_785
*1779 FILLER_36_797
*1780 FILLER_37_707
*1781 FILLER_37_719
*1782 FILLER_37_731
*1783 FILLER_37_743
*1784 FILLER_37_755
*1785 FILLER_37_757
*1786 FILLER_37_769
*1787 FILLER_37_781
*1788 FILLER_37_793
*1789 FILLER_38_703
*1790 FILLER_38_715
*1791 FILLER_38_727
*1792 FILLER_38_729
*1793 FILLER_38_741
*1794 FILLER_38_753
*1795 FILLER_38_765
*1796 FILLER_38_777
*1797 FILLER_38_781
*1798 FILLER_38_783
*1799 FILLER_38_785
*1800 FILLER_38_797
*1801 FILLER_39_705
*1802 FILLER_39_717
*1803 FILLER_39_729
*1804 FILLER_39_741
*1805 FILLER_39_753
*1806 FILLER_39_755
*1807 FILLER_39_757
*1808 FILLER_39_769
*1809 FILLER_39_781
*1810 FILLER_39_793
*1811 FILLER_3_105
*1812 FILLER_3_109
*1813 FILLER_3_111
*1814 FILLER_3_113
*1815 FILLER_3_125
*1816 FILLER_3_137
*1817 FILLER_3_149
*1818 FILLER_3_15
*1819 FILLER_3_161
*1820 FILLER_3_165
*1821 FILLER_3_167
*1822 FILLER_3_169
*1823 FILLER_3_181
*1824 FILLER_3_193
*1825 FILLER_3_205
*1826 FILLER_3_217
*1827 FILLER_3_221
*1828 FILLER_3_223
*1829 FILLER_3_225
*1830 FILLER_3_227
*1831 FILLER_3_231
*1832 FILLER_3_243
*1833 FILLER_3_255
*1834 FILLER_3_267
*1835 FILLER_3_27
*1836 FILLER_3_279
*1837 FILLER_3_281
*1838 FILLER_3_293
*1839 FILLER_3_3
*1840 FILLER_3_319
*1841 FILLER_3_331
*1842 FILLER_3_335
*1843 FILLER_3_337
*1844 FILLER_3_349
*1845 FILLER_3_361
*1846 FILLER_3_373
*1847 FILLER_3_385
*1848 FILLER_3_387
*1849 FILLER_3_39
*1850 FILLER_3_403
*1851 FILLER_3_415
*1852 FILLER_3_427
*1853 FILLER_3_439
*1854 FILLER_3_447
*1855 FILLER_3_449
*1856 FILLER_3_457
*1857 FILLER_3_466
*1858 FILLER_3_478
*1859 FILLER_3_490
*1860 FILLER_3_502
*1861 FILLER_3_505
*1862 FILLER_3_51
*1863 FILLER_3_517
*1864 FILLER_3_529
*1865 FILLER_3_541
*1866 FILLER_3_55
*1867 FILLER_3_553
*1868 FILLER_3_557
*1869 FILLER_3_559
*1870 FILLER_3_561
*1871 FILLER_3_57
*1872 FILLER_3_573
*1873 FILLER_3_585
*1874 FILLER_3_597
*1875 FILLER_3_609
*1876 FILLER_3_613
*1877 FILLER_3_615
*1878 FILLER_3_617
*1879 FILLER_3_629
*1880 FILLER_3_641
*1881 FILLER_3_667
*1882 FILLER_3_671
*1883 FILLER_3_673
*1884 FILLER_3_677
*1885 FILLER_3_689
*1886 FILLER_3_69
*1887 FILLER_3_697
*1888 FILLER_3_715
*1889 FILLER_3_727
*1890 FILLER_3_729
*1891 FILLER_3_757
*1892 FILLER_3_765
*1893 FILLER_3_767
*1894 FILLER_3_81
*1895 FILLER_3_93
*1896 FILLER_40_703
*1897 FILLER_40_715
*1898 FILLER_40_727
*1899 FILLER_40_729
*1900 FILLER_40_741
*1901 FILLER_40_753
*1902 FILLER_40_765
*1903 FILLER_40_777
*1904 FILLER_40_781
*1905 FILLER_40_783
*1906 FILLER_40_785
*1907 FILLER_40_797
*1908 FILLER_41_707
*1909 FILLER_41_719
*1910 FILLER_41_731
*1911 FILLER_41_743
*1912 FILLER_41_755
*1913 FILLER_41_757
*1914 FILLER_41_769
*1915 FILLER_41_781
*1916 FILLER_41_793
*1917 FILLER_42_703
*1918 FILLER_42_715
*1919 FILLER_42_727
*1920 FILLER_42_729
*1921 FILLER_42_741
*1922 FILLER_42_753
*1923 FILLER_42_765
*1924 FILLER_42_777
*1925 FILLER_42_781
*1926 FILLER_42_783
*1927 FILLER_42_785
*1928 FILLER_42_797
*1929 FILLER_43_705
*1930 FILLER_43_717
*1931 FILLER_43_729
*1932 FILLER_43_741
*1933 FILLER_43_753
*1934 FILLER_43_755
*1935 FILLER_43_757
*1936 FILLER_43_769
*1937 FILLER_43_781
*1938 FILLER_43_793
*1939 FILLER_44_703
*1940 FILLER_44_715
*1941 FILLER_44_727
*1942 FILLER_44_729
*1943 FILLER_44_741
*1944 FILLER_44_753
*1945 FILLER_44_765
*1946 FILLER_44_777
*1947 FILLER_44_781
*1948 FILLER_44_783
*1949 FILLER_44_785
*1950 FILLER_44_797
*1951 FILLER_45_707
*1952 FILLER_45_719
*1953 FILLER_45_731
*1954 FILLER_45_743
*1955 FILLER_45_755
*1956 FILLER_45_757
*1957 FILLER_45_769
*1958 FILLER_45_781
*1959 FILLER_45_793
*1960 FILLER_46_703
*1961 FILLER_46_715
*1962 FILLER_46_727
*1963 FILLER_46_729
*1964 FILLER_46_741
*1965 FILLER_46_753
*1966 FILLER_46_765
*1967 FILLER_46_777
*1968 FILLER_46_781
*1969 FILLER_46_783
*1970 FILLER_46_785
*1971 FILLER_46_797
*1972 FILLER_47_705
*1973 FILLER_47_717
*1974 FILLER_47_729
*1975 FILLER_47_741
*1976 FILLER_47_753
*1977 FILLER_47_755
*1978 FILLER_47_757
*1979 FILLER_47_769
*1980 FILLER_47_781
*1981 FILLER_47_793
*1982 FILLER_48_703
*1983 FILLER_48_715
*1984 FILLER_48_727
*1985 FILLER_48_729
*1986 FILLER_48_741
*1987 FILLER_48_753
*1988 FILLER_48_765
*1989 FILLER_48_777
*1990 FILLER_48_781
*1991 FILLER_48_783
*1992 FILLER_48_785
*1993 FILLER_48_797
*1994 FILLER_49_709
*1995 FILLER_49_721
*1996 FILLER_49_733
*1997 FILLER_49_745
*1998 FILLER_49_753
*1999 FILLER_49_755
*2000 FILLER_49_757
*2001 FILLER_49_769
*2002 FILLER_49_781
*2003 FILLER_49_793
*2004 FILLER_4_109
*2005 FILLER_4_121
*2006 FILLER_4_133
*2007 FILLER_4_137
*2008 FILLER_4_139
*2009 FILLER_4_141
*2010 FILLER_4_15
*2011 FILLER_4_153
*2012 FILLER_4_165
*2013 FILLER_4_177
*2014 FILLER_4_189
*2015 FILLER_4_193
*2016 FILLER_4_195
*2017 FILLER_4_197
*2018 FILLER_4_209
*2019 FILLER_4_221
*2020 FILLER_4_233
*2021 FILLER_4_245
*2022 FILLER_4_249
*2023 FILLER_4_251
*2024 FILLER_4_253
*2025 FILLER_4_265
*2026 FILLER_4_27
*2027 FILLER_4_277
*2028 FILLER_4_289
*2029 FILLER_4_29
*2030 FILLER_4_3
*2031 FILLER_4_301
*2032 FILLER_4_305
*2033 FILLER_4_307
*2034 FILLER_4_309
*2035 FILLER_4_321
*2036 FILLER_4_333
*2037 FILLER_4_345
*2038 FILLER_4_357
*2039 FILLER_4_361
*2040 FILLER_4_363
*2041 FILLER_4_365
*2042 FILLER_4_377
*2043 FILLER_4_379
*2044 FILLER_4_395
*2045 FILLER_4_400
*2046 FILLER_4_409
*2047 FILLER_4_41
*2048 FILLER_4_429
*2049 FILLER_4_475
*2050 FILLER_4_489
*2051 FILLER_4_492
*2052 FILLER_4_511
*2053 FILLER_4_523
*2054 FILLER_4_53
*2055 FILLER_4_531
*2056 FILLER_4_533
*2057 FILLER_4_545
*2058 FILLER_4_557
*2059 FILLER_4_569
*2060 FILLER_4_573
*2061 FILLER_4_575
*2062 FILLER_4_578
*2063 FILLER_4_591
*2064 FILLER_4_603
*2065 FILLER_4_611
*2066 FILLER_4_616
*2067 FILLER_4_624
*2068 FILLER_4_626
*2069 FILLER_4_629
*2070 FILLER_4_641
*2071 FILLER_4_643
*2072 FILLER_4_645
*2073 FILLER_4_649
*2074 FILLER_4_65
*2075 FILLER_4_651
*2076 FILLER_4_654
*2077 FILLER_4_666
*2078 FILLER_4_670
*2079 FILLER_4_673
*2080 FILLER_4_681
*2081 FILLER_4_687
*2082 FILLER_4_692
*2083 FILLER_4_705
*2084 FILLER_4_717
*2085 FILLER_4_729
*2086 FILLER_4_741
*2087 FILLER_4_753
*2088 FILLER_4_755
*2089 FILLER_4_757
*2090 FILLER_4_769
*2091 FILLER_4_77
*2092 FILLER_4_777
*2093 FILLER_4_81
*2094 FILLER_4_83
*2095 FILLER_4_85
*2096 FILLER_4_97
*2097 FILLER_50_725
*2098 FILLER_50_727
*2099 FILLER_50_729
*2100 FILLER_50_741
*2101 FILLER_50_753
*2102 FILLER_50_765
*2103 FILLER_50_777
*2104 FILLER_50_781
*2105 FILLER_50_783
*2106 FILLER_50_785
*2107 FILLER_50_797
*2108 FILLER_51_705
*2109 FILLER_51_717
*2110 FILLER_51_729
*2111 FILLER_51_741
*2112 FILLER_51_753
*2113 FILLER_51_755
*2114 FILLER_51_757
*2115 FILLER_51_769
*2116 FILLER_51_781
*2117 FILLER_51_793
*2118 FILLER_52_703
*2119 FILLER_52_715
*2120 FILLER_52_727
*2121 FILLER_52_729
*2122 FILLER_52_741
*2123 FILLER_52_753
*2124 FILLER_52_765
*2125 FILLER_52_777
*2126 FILLER_52_781
*2127 FILLER_52_783
*2128 FILLER_52_785
*2129 FILLER_52_797
*2130 FILLER_53_707
*2131 FILLER_53_719
*2132 FILLER_53_731
*2133 FILLER_53_743
*2134 FILLER_53_755
*2135 FILLER_53_757
*2136 FILLER_53_769
*2137 FILLER_53_781
*2138 FILLER_53_793
*2139 FILLER_54_703
*2140 FILLER_54_715
*2141 FILLER_54_727
*2142 FILLER_54_729
*2143 FILLER_54_741
*2144 FILLER_54_753
*2145 FILLER_54_765
*2146 FILLER_54_777
*2147 FILLER_54_781
*2148 FILLER_54_783
*2149 FILLER_54_785
*2150 FILLER_54_797
*2151 FILLER_55_705
*2152 FILLER_55_717
*2153 FILLER_55_729
*2154 FILLER_55_741
*2155 FILLER_55_753
*2156 FILLER_55_755
*2157 FILLER_55_757
*2158 FILLER_55_769
*2159 FILLER_55_781
*2160 FILLER_55_793
*2161 FILLER_56_703
*2162 FILLER_56_715
*2163 FILLER_56_727
*2164 FILLER_56_729
*2165 FILLER_56_741
*2166 FILLER_56_753
*2167 FILLER_56_765
*2168 FILLER_56_777
*2169 FILLER_56_781
*2170 FILLER_56_783
*2171 FILLER_56_785
*2172 FILLER_56_797
*2173 FILLER_57_705
*2174 FILLER_57_717
*2175 FILLER_57_729
*2176 FILLER_57_741
*2177 FILLER_57_753
*2178 FILLER_57_755
*2179 FILLER_57_757
*2180 FILLER_57_769
*2181 FILLER_57_781
*2182 FILLER_57_793
*2183 FILLER_58_705
*2184 FILLER_58_717
*2185 FILLER_58_725
*2186 FILLER_58_727
*2187 FILLER_58_729
*2188 FILLER_58_741
*2189 FILLER_58_753
*2190 FILLER_58_765
*2191 FILLER_58_777
*2192 FILLER_58_781
*2193 FILLER_58_783
*2194 FILLER_58_785
*2195 FILLER_58_797
*2196 FILLER_59_705
*2197 FILLER_59_717
*2198 FILLER_59_729
*2199 FILLER_59_741
*2200 FILLER_59_753
*2201 FILLER_59_755
*2202 FILLER_59_757
*2203 FILLER_59_769
*2204 FILLER_59_781
*2205 FILLER_59_793
*2206 FILLER_5_105
*2207 FILLER_5_109
*2208 FILLER_5_111
*2209 FILLER_5_113
*2210 FILLER_5_125
*2211 FILLER_5_137
*2212 FILLER_5_149
*2213 FILLER_5_15
*2214 FILLER_5_161
*2215 FILLER_5_165
*2216 FILLER_5_167
*2217 FILLER_5_169
*2218 FILLER_5_181
*2219 FILLER_5_193
*2220 FILLER_5_205
*2221 FILLER_5_217
*2222 FILLER_5_221
*2223 FILLER_5_223
*2224 FILLER_5_225
*2225 FILLER_5_237
*2226 FILLER_5_249
*2227 FILLER_5_261
*2228 FILLER_5_27
*2229 FILLER_5_273
*2230 FILLER_5_277
*2231 FILLER_5_279
*2232 FILLER_5_281
*2233 FILLER_5_293
*2234 FILLER_5_3
*2235 FILLER_5_305
*2236 FILLER_5_317
*2237 FILLER_5_329
*2238 FILLER_5_333
*2239 FILLER_5_335
*2240 FILLER_5_337
*2241 FILLER_5_349
*2242 FILLER_5_361
*2243 FILLER_5_373
*2244 FILLER_5_381
*2245 FILLER_5_39
*2246 FILLER_5_393
*2247 FILLER_5_430
*2248 FILLER_5_434
*2249 FILLER_5_436
*2250 FILLER_5_51
*2251 FILLER_5_517
*2252 FILLER_5_529
*2253 FILLER_5_541
*2254 FILLER_5_55
*2255 FILLER_5_553
*2256 FILLER_5_557
*2257 FILLER_5_559
*2258 FILLER_5_561
*2259 FILLER_5_563
*2260 FILLER_5_57
*2261 FILLER_5_590
*2262 FILLER_5_603
*2263 FILLER_5_641
*2264 FILLER_5_654
*2265 FILLER_5_671
*2266 FILLER_5_69
*2267 FILLER_5_691
*2268 FILLER_5_704
*2269 FILLER_5_721
*2270 FILLER_5_725
*2271 FILLER_5_727
*2272 FILLER_5_731
*2273 FILLER_5_739
*2274 FILLER_5_743
*2275 FILLER_5_757
*2276 FILLER_5_769
*2277 FILLER_5_781
*2278 FILLER_5_783
*2279 FILLER_5_81
*2280 FILLER_5_93
*2281 FILLER_60_703
*2282 FILLER_60_715
*2283 FILLER_60_727
*2284 FILLER_60_729
*2285 FILLER_60_741
*2286 FILLER_60_753
*2287 FILLER_60_765
*2288 FILLER_60_777
*2289 FILLER_60_781
*2290 FILLER_60_783
*2291 FILLER_60_785
*2292 FILLER_60_797
*2293 FILLER_61_707
*2294 FILLER_61_719
*2295 FILLER_61_731
*2296 FILLER_61_743
*2297 FILLER_61_755
*2298 FILLER_61_757
*2299 FILLER_61_769
*2300 FILLER_61_781
*2301 FILLER_61_793
*2302 FILLER_62_727
*2303 FILLER_62_729
*2304 FILLER_62_741
*2305 FILLER_62_753
*2306 FILLER_62_765
*2307 FILLER_62_777
*2308 FILLER_62_781
*2309 FILLER_62_783
*2310 FILLER_62_785
*2311 FILLER_62_797
*2312 FILLER_63_705
*2313 FILLER_63_717
*2314 FILLER_63_729
*2315 FILLER_63_741
*2316 FILLER_63_753
*2317 FILLER_63_755
*2318 FILLER_63_757
*2319 FILLER_63_769
*2320 FILLER_63_781
*2321 FILLER_63_793
*2322 FILLER_64_703
*2323 FILLER_64_715
*2324 FILLER_64_727
*2325 FILLER_64_729
*2326 FILLER_64_741
*2327 FILLER_64_753
*2328 FILLER_64_765
*2329 FILLER_64_777
*2330 FILLER_64_781
*2331 FILLER_64_783
*2332 FILLER_64_785
*2333 FILLER_64_797
*2334 FILLER_65_705
*2335 FILLER_65_717
*2336 FILLER_65_729
*2337 FILLER_65_741
*2338 FILLER_65_753
*2339 FILLER_65_755
*2340 FILLER_65_757
*2341 FILLER_65_769
*2342 FILLER_65_781
*2343 FILLER_65_793
*2344 FILLER_66_705
*2345 FILLER_66_717
*2346 FILLER_66_725
*2347 FILLER_66_727
*2348 FILLER_66_729
*2349 FILLER_66_741
*2350 FILLER_66_753
*2351 FILLER_66_765
*2352 FILLER_66_777
*2353 FILLER_66_781
*2354 FILLER_66_783
*2355 FILLER_66_785
*2356 FILLER_66_797
*2357 FILLER_67_705
*2358 FILLER_67_717
*2359 FILLER_67_729
*2360 FILLER_67_741
*2361 FILLER_67_753
*2362 FILLER_67_755
*2363 FILLER_67_757
*2364 FILLER_67_769
*2365 FILLER_67_781
*2366 FILLER_67_793
*2367 FILLER_68_703
*2368 FILLER_68_715
*2369 FILLER_68_727
*2370 FILLER_68_729
*2371 FILLER_68_741
*2372 FILLER_68_753
*2373 FILLER_68_765
*2374 FILLER_68_777
*2375 FILLER_68_781
*2376 FILLER_68_783
*2377 FILLER_68_785
*2378 FILLER_68_797
*2379 FILLER_69_705
*2380 FILLER_69_717
*2381 FILLER_69_729
*2382 FILLER_69_741
*2383 FILLER_69_753
*2384 FILLER_69_755
*2385 FILLER_69_757
*2386 FILLER_69_769
*2387 FILLER_69_781
*2388 FILLER_69_793
*2389 FILLER_6_109
*2390 FILLER_6_121
*2391 FILLER_6_133
*2392 FILLER_6_137
*2393 FILLER_6_139
*2394 FILLER_6_141
*2395 FILLER_6_15
*2396 FILLER_6_153
*2397 FILLER_6_165
*2398 FILLER_6_177
*2399 FILLER_6_189
*2400 FILLER_6_193
*2401 FILLER_6_195
*2402 FILLER_6_197
*2403 FILLER_6_209
*2404 FILLER_6_221
*2405 FILLER_6_233
*2406 FILLER_6_245
*2407 FILLER_6_249
*2408 FILLER_6_251
*2409 FILLER_6_253
*2410 FILLER_6_265
*2411 FILLER_6_27
*2412 FILLER_6_277
*2413 FILLER_6_289
*2414 FILLER_6_29
*2415 FILLER_6_3
*2416 FILLER_6_301
*2417 FILLER_6_305
*2418 FILLER_6_307
*2419 FILLER_6_309
*2420 FILLER_6_321
*2421 FILLER_6_333
*2422 FILLER_6_345
*2423 FILLER_6_357
*2424 FILLER_6_361
*2425 FILLER_6_363
*2426 FILLER_6_365
*2427 FILLER_6_377
*2428 FILLER_6_385
*2429 FILLER_6_387
*2430 FILLER_6_404
*2431 FILLER_6_408
*2432 FILLER_6_41
*2433 FILLER_6_411
*2434 FILLER_6_419
*2435 FILLER_6_423
*2436 FILLER_6_427
*2437 FILLER_6_430
*2438 FILLER_6_434
*2439 FILLER_6_436
*2440 FILLER_6_439
*2441 FILLER_6_447
*2442 FILLER_6_450
*2443 FILLER_6_462
*2444 FILLER_6_477
*2445 FILLER_6_492
*2446 FILLER_6_504
*2447 FILLER_6_516
*2448 FILLER_6_528
*2449 FILLER_6_53
*2450 FILLER_6_533
*2451 FILLER_6_545
*2452 FILLER_6_557
*2453 FILLER_6_565
*2454 FILLER_6_584
*2455 FILLER_6_591
*2456 FILLER_6_599
*2457 FILLER_6_601
*2458 FILLER_6_604
*2459 FILLER_6_612
*2460 FILLER_6_614
*2461 FILLER_6_617
*2462 FILLER_6_625
*2463 FILLER_6_629
*2464 FILLER_6_637
*2465 FILLER_6_639
*2466 FILLER_6_642
*2467 FILLER_6_645
*2468 FILLER_6_65
*2469 FILLER_6_655
*2470 FILLER_6_667
*2471 FILLER_6_679
*2472 FILLER_6_687
*2473 FILLER_6_691
*2474 FILLER_6_699
*2475 FILLER_6_701
*2476 FILLER_6_704
*2477 FILLER_6_729
*2478 FILLER_6_742
*2479 FILLER_6_755
*2480 FILLER_6_767
*2481 FILLER_6_77
*2482 FILLER_6_779
*2483 FILLER_6_791
*2484 FILLER_6_81
*2485 FILLER_6_83
*2486 FILLER_6_85
*2487 FILLER_6_97
*2488 FILLER_70_705
*2489 FILLER_70_717
*2490 FILLER_70_725
*2491 FILLER_70_727
*2492 FILLER_70_729
*2493 FILLER_70_741
*2494 FILLER_70_753
*2495 FILLER_70_765
*2496 FILLER_70_777
*2497 FILLER_70_781
*2498 FILLER_70_783
*2499 FILLER_70_785
*2500 FILLER_70_797
*2501 FILLER_71_705
*2502 FILLER_71_717
*2503 FILLER_71_729
*2504 FILLER_71_741
*2505 FILLER_71_753
*2506 FILLER_71_755
*2507 FILLER_71_757
*2508 FILLER_71_769
*2509 FILLER_71_781
*2510 FILLER_71_793
*2511 FILLER_72_703
*2512 FILLER_72_715
*2513 FILLER_72_727
*2514 FILLER_72_729
*2515 FILLER_72_741
*2516 FILLER_72_753
*2517 FILLER_72_765
*2518 FILLER_72_777
*2519 FILLER_72_781
*2520 FILLER_72_783
*2521 FILLER_72_785
*2522 FILLER_72_797
*2523 FILLER_73_705
*2524 FILLER_73_717
*2525 FILLER_73_729
*2526 FILLER_73_741
*2527 FILLER_73_753
*2528 FILLER_73_755
*2529 FILLER_73_757
*2530 FILLER_73_769
*2531 FILLER_73_781
*2532 FILLER_73_793
*2533 FILLER_74_705
*2534 FILLER_74_717
*2535 FILLER_74_725
*2536 FILLER_74_727
*2537 FILLER_74_729
*2538 FILLER_74_741
*2539 FILLER_74_753
*2540 FILLER_74_765
*2541 FILLER_74_777
*2542 FILLER_74_781
*2543 FILLER_74_783
*2544 FILLER_74_785
*2545 FILLER_74_797
*2546 FILLER_75_705
*2547 FILLER_75_717
*2548 FILLER_75_729
*2549 FILLER_75_741
*2550 FILLER_75_753
*2551 FILLER_75_755
*2552 FILLER_75_757
*2553 FILLER_75_769
*2554 FILLER_75_781
*2555 FILLER_75_793
*2556 FILLER_76_706
*2557 FILLER_76_718
*2558 FILLER_76_726
*2559 FILLER_76_729
*2560 FILLER_76_741
*2561 FILLER_76_753
*2562 FILLER_76_765
*2563 FILLER_76_777
*2564 FILLER_76_781
*2565 FILLER_76_783
*2566 FILLER_76_785
*2567 FILLER_76_797
*2568 FILLER_77_705
*2569 FILLER_77_717
*2570 FILLER_77_729
*2571 FILLER_77_741
*2572 FILLER_77_753
*2573 FILLER_77_755
*2574 FILLER_77_757
*2575 FILLER_77_769
*2576 FILLER_77_781
*2577 FILLER_77_793
*2578 FILLER_78_708
*2579 FILLER_78_720
*2580 FILLER_78_729
*2581 FILLER_78_741
*2582 FILLER_78_753
*2583 FILLER_78_765
*2584 FILLER_78_777
*2585 FILLER_78_781
*2586 FILLER_78_783
*2587 FILLER_78_785
*2588 FILLER_78_797
*2589 FILLER_79_705
*2590 FILLER_79_717
*2591 FILLER_79_729
*2592 FILLER_79_741
*2593 FILLER_79_753
*2594 FILLER_79_755
*2595 FILLER_79_757
*2596 FILLER_79_769
*2597 FILLER_79_781
*2598 FILLER_79_793
*2599 FILLER_7_105
*2600 FILLER_7_109
*2601 FILLER_7_111
*2602 FILLER_7_113
*2603 FILLER_7_125
*2604 FILLER_7_137
*2605 FILLER_7_149
*2606 FILLER_7_15
*2607 FILLER_7_161
*2608 FILLER_7_165
*2609 FILLER_7_167
*2610 FILLER_7_169
*2611 FILLER_7_181
*2612 FILLER_7_193
*2613 FILLER_7_205
*2614 FILLER_7_217
*2615 FILLER_7_221
*2616 FILLER_7_223
*2617 FILLER_7_225
*2618 FILLER_7_237
*2619 FILLER_7_249
*2620 FILLER_7_261
*2621 FILLER_7_27
*2622 FILLER_7_273
*2623 FILLER_7_277
*2624 FILLER_7_279
*2625 FILLER_7_281
*2626 FILLER_7_293
*2627 FILLER_7_3
*2628 FILLER_7_305
*2629 FILLER_7_317
*2630 FILLER_7_329
*2631 FILLER_7_333
*2632 FILLER_7_335
*2633 FILLER_7_337
*2634 FILLER_7_349
*2635 FILLER_7_361
*2636 FILLER_7_373
*2637 FILLER_7_385
*2638 FILLER_7_389
*2639 FILLER_7_39
*2640 FILLER_7_391
*2641 FILLER_7_393
*2642 FILLER_7_401
*2643 FILLER_7_415
*2644 FILLER_7_427
*2645 FILLER_7_439
*2646 FILLER_7_447
*2647 FILLER_7_473
*2648 FILLER_7_485
*2649 FILLER_7_497
*2650 FILLER_7_501
*2651 FILLER_7_503
*2652 FILLER_7_505
*2653 FILLER_7_51
*2654 FILLER_7_517
*2655 FILLER_7_529
*2656 FILLER_7_541
*2657 FILLER_7_55
*2658 FILLER_7_553
*2659 FILLER_7_557
*2660 FILLER_7_559
*2661 FILLER_7_561
*2662 FILLER_7_57
*2663 FILLER_7_573
*2664 FILLER_7_585
*2665 FILLER_7_597
*2666 FILLER_7_609
*2667 FILLER_7_613
*2668 FILLER_7_615
*2669 FILLER_7_617
*2670 FILLER_7_629
*2671 FILLER_7_641
*2672 FILLER_7_653
*2673 FILLER_7_665
*2674 FILLER_7_669
*2675 FILLER_7_671
*2676 FILLER_7_673
*2677 FILLER_7_685
*2678 FILLER_7_69
*2679 FILLER_7_697
*2680 FILLER_7_709
*2681 FILLER_7_715
*2682 FILLER_7_727
*2683 FILLER_7_729
*2684 FILLER_7_741
*2685 FILLER_7_753
*2686 FILLER_7_765
*2687 FILLER_7_777
*2688 FILLER_7_781
*2689 FILLER_7_783
*2690 FILLER_7_785
*2691 FILLER_7_797
*2692 FILLER_7_81
*2693 FILLER_7_93
*2694 FILLER_80_707
*2695 FILLER_80_719
*2696 FILLER_80_727
*2697 FILLER_80_729
*2698 FILLER_80_741
*2699 FILLER_80_753
*2700 FILLER_80_765
*2701 FILLER_80_777
*2702 FILLER_80_781
*2703 FILLER_80_783
*2704 FILLER_80_785
*2705 FILLER_80_797
*2706 FILLER_81_707
*2707 FILLER_81_719
*2708 FILLER_81_731
*2709 FILLER_81_743
*2710 FILLER_81_755
*2711 FILLER_81_757
*2712 FILLER_81_769
*2713 FILLER_81_781
*2714 FILLER_81_793
*2715 FILLER_82_707
*2716 FILLER_82_719
*2717 FILLER_82_727
*2718 FILLER_82_729
*2719 FILLER_82_741
*2720 FILLER_82_753
*2721 FILLER_82_765
*2722 FILLER_82_777
*2723 FILLER_82_781
*2724 FILLER_82_783
*2725 FILLER_82_785
*2726 FILLER_82_797
*2727 FILLER_83_703
*2728 FILLER_83_715
*2729 FILLER_83_727
*2730 FILLER_83_739
*2731 FILLER_83_751
*2732 FILLER_83_755
*2733 FILLER_83_757
*2734 FILLER_83_769
*2735 FILLER_83_781
*2736 FILLER_83_793
*2737 FILLER_84_709
*2738 FILLER_84_721
*2739 FILLER_84_725
*2740 FILLER_84_727
*2741 FILLER_84_729
*2742 FILLER_84_741
*2743 FILLER_84_753
*2744 FILLER_84_765
*2745 FILLER_84_777
*2746 FILLER_84_781
*2747 FILLER_84_783
*2748 FILLER_84_785
*2749 FILLER_84_797
*2750 FILLER_85_707
*2751 FILLER_85_719
*2752 FILLER_85_731
*2753 FILLER_85_743
*2754 FILLER_85_755
*2755 FILLER_85_757
*2756 FILLER_85_769
*2757 FILLER_85_781
*2758 FILLER_85_793
*2759 FILLER_86_707
*2760 FILLER_86_719
*2761 FILLER_86_727
*2762 FILLER_86_729
*2763 FILLER_86_741
*2764 FILLER_86_753
*2765 FILLER_86_765
*2766 FILLER_86_777
*2767 FILLER_86_781
*2768 FILLER_86_783
*2769 FILLER_86_785
*2770 FILLER_86_797
*2771 FILLER_87_703
*2772 FILLER_87_715
*2773 FILLER_87_727
*2774 FILLER_87_739
*2775 FILLER_87_751
*2776 FILLER_87_755
*2777 FILLER_87_757
*2778 FILLER_87_769
*2779 FILLER_87_781
*2780 FILLER_87_793
*2781 FILLER_88_708
*2782 FILLER_88_720
*2783 FILLER_88_729
*2784 FILLER_88_741
*2785 FILLER_88_753
*2786 FILLER_88_765
*2787 FILLER_88_777
*2788 FILLER_88_781
*2789 FILLER_88_783
*2790 FILLER_88_785
*2791 FILLER_88_797
*2792 FILLER_89_706
*2793 FILLER_89_718
*2794 FILLER_89_730
*2795 FILLER_89_742
*2796 FILLER_89_754
*2797 FILLER_89_757
*2798 FILLER_89_769
*2799 FILLER_89_781
*2800 FILLER_89_793
*2801 FILLER_8_109
*2802 FILLER_8_111
*2803 FILLER_8_113
*2804 FILLER_8_125
*2805 FILLER_8_137
*2806 FILLER_8_139
*2807 FILLER_8_141
*2808 FILLER_8_15
*2809 FILLER_8_153
*2810 FILLER_8_165
*2811 FILLER_8_167
*2812 FILLER_8_169
*2813 FILLER_8_181
*2814 FILLER_8_193
*2815 FILLER_8_195
*2816 FILLER_8_197
*2817 FILLER_8_209
*2818 FILLER_8_221
*2819 FILLER_8_223
*2820 FILLER_8_225
*2821 FILLER_8_237
*2822 FILLER_8_249
*2823 FILLER_8_251
*2824 FILLER_8_253
*2825 FILLER_8_265
*2826 FILLER_8_27
*2827 FILLER_8_277
*2828 FILLER_8_279
*2829 FILLER_8_281
*2830 FILLER_8_29
*2831 FILLER_8_293
*2832 FILLER_8_3
*2833 FILLER_8_305
*2834 FILLER_8_307
*2835 FILLER_8_309
*2836 FILLER_8_321
*2837 FILLER_8_333
*2838 FILLER_8_335
*2839 FILLER_8_337
*2840 FILLER_8_349
*2841 FILLER_8_361
*2842 FILLER_8_363
*2843 FILLER_8_365
*2844 FILLER_8_377
*2845 FILLER_8_389
*2846 FILLER_8_391
*2847 FILLER_8_393
*2848 FILLER_8_405
*2849 FILLER_8_41
*2850 FILLER_8_417
*2851 FILLER_8_419
*2852 FILLER_8_421
*2853 FILLER_8_433
*2854 FILLER_8_445
*2855 FILLER_8_447
*2856 FILLER_8_475
*2857 FILLER_8_488
*2858 FILLER_8_500
*2859 FILLER_8_505
*2860 FILLER_8_517
*2861 FILLER_8_529
*2862 FILLER_8_53
*2863 FILLER_8_531
*2864 FILLER_8_533
*2865 FILLER_8_545
*2866 FILLER_8_55
*2867 FILLER_8_557
*2868 FILLER_8_559
*2869 FILLER_8_561
*2870 FILLER_8_57
*2871 FILLER_8_573
*2872 FILLER_8_585
*2873 FILLER_8_587
*2874 FILLER_8_589
*2875 FILLER_8_601
*2876 FILLER_8_613
*2877 FILLER_8_615
*2878 FILLER_8_617
*2879 FILLER_8_629
*2880 FILLER_8_641
*2881 FILLER_8_643
*2882 FILLER_8_645
*2883 FILLER_8_657
*2884 FILLER_8_669
*2885 FILLER_8_671
*2886 FILLER_8_673
*2887 FILLER_8_685
*2888 FILLER_8_69
*2889 FILLER_8_697
*2890 FILLER_8_699
*2891 FILLER_8_701
*2892 FILLER_8_713
*2893 FILLER_8_725
*2894 FILLER_8_727
*2895 FILLER_8_729
*2896 FILLER_8_741
*2897 FILLER_8_753
*2898 FILLER_8_755
*2899 FILLER_8_757
*2900 FILLER_8_769
*2901 FILLER_8_781
*2902 FILLER_8_783
*2903 FILLER_8_785
*2904 FILLER_8_797
*2905 FILLER_8_81
*2906 FILLER_8_83
*2907 FILLER_8_85
*2908 FILLER_8_97
*2909 FILLER_90_708
*2910 FILLER_90_720
*2911 FILLER_90_729
*2912 FILLER_90_741
*2913 FILLER_90_753
*2914 FILLER_90_765
*2915 FILLER_90_777
*2916 FILLER_90_781
*2917 FILLER_90_783
*2918 FILLER_90_785
*2919 FILLER_90_797
*2920 FILLER_91_705
*2921 FILLER_91_717
*2922 FILLER_91_729
*2923 FILLER_91_741
*2924 FILLER_91_753
*2925 FILLER_91_755
*2926 FILLER_91_757
*2927 FILLER_91_769
*2928 FILLER_91_781
*2929 FILLER_91_793
*2930 FILLER_92_703
*2931 FILLER_92_715
*2932 FILLER_92_727
*2933 FILLER_92_729
*2934 FILLER_92_741
*2935 FILLER_92_753
*2936 FILLER_92_765
*2937 FILLER_92_777
*2938 FILLER_92_781
*2939 FILLER_92_783
*2940 FILLER_92_785
*2941 FILLER_92_797
*2942 FILLER_93_705
*2943 FILLER_93_717
*2944 FILLER_93_729
*2945 FILLER_93_741
*2946 FILLER_93_753
*2947 FILLER_93_755
*2948 FILLER_93_757
*2949 FILLER_93_769
*2950 FILLER_93_781
*2951 FILLER_93_793
*2952 FILLER_94_711
*2953 FILLER_94_723
*2954 FILLER_94_727
*2955 FILLER_94_729
*2956 FILLER_94_741
*2957 FILLER_94_753
*2958 FILLER_94_765
*2959 FILLER_94_777
*2960 FILLER_94_781
*2961 FILLER_94_783
*2962 FILLER_94_785
*2963 FILLER_94_797
*2964 FILLER_95_705
*2965 FILLER_95_717
*2966 FILLER_95_729
*2967 FILLER_95_741
*2968 FILLER_95_753
*2969 FILLER_95_755
*2970 FILLER_95_757
*2971 FILLER_95_769
*2972 FILLER_95_781
*2973 FILLER_95_793
*2974 FILLER_96_705
*2975 FILLER_96_717
*2976 FILLER_96_725
*2977 FILLER_96_727
*2978 FILLER_96_729
*2979 FILLER_96_741
*2980 FILLER_96_753
*2981 FILLER_96_765
*2982 FILLER_96_777
*2983 FILLER_96_781
*2984 FILLER_96_783
*2985 FILLER_96_785
*2986 FILLER_96_797
*2987 FILLER_97_705
*2988 FILLER_97_717
*2989 FILLER_97_729
*2990 FILLER_97_741
*2991 FILLER_97_753
*2992 FILLER_97_755
*2993 FILLER_97_757
*2994 FILLER_97_769
*2995 FILLER_97_781
*2996 FILLER_97_793
*2997 FILLER_98_705
*2998 FILLER_98_717
*2999 FILLER_98_725
*3000 FILLER_98_727
*3001 FILLER_98_729
*3002 FILLER_98_741
*3003 FILLER_98_753
*3004 FILLER_98_765
*3005 FILLER_98_777
*3006 FILLER_98_781
*3007 FILLER_98_783
*3008 FILLER_98_785
*3009 FILLER_98_797
*3010 FILLER_99_705
*3011 FILLER_99_717
*3012 FILLER_99_729
*3013 FILLER_99_741
*3014 FILLER_99_753
*3015 FILLER_99_755
*3016 FILLER_99_757
*3017 FILLER_99_769
*3018 FILLER_99_781
*3019 FILLER_99_793
*3020 FILLER_9_703
*3021 FILLER_9_715
*3022 FILLER_9_727
*3023 FILLER_9_739
*3024 FILLER_9_751
*3025 FILLER_9_755
*3026 FILLER_9_757
*3027 FILLER_9_769
*3028 FILLER_9_781
*3029 FILLER_9_793
*3030 PHY_EDGE_ROW_0_Left_0
*3031 PHY_EDGE_ROW_0_Right_9
*3032 PHY_EDGE_ROW_100_2_Left_255
*3033 PHY_EDGE_ROW_100_2_Right_108
*3034 PHY_EDGE_ROW_101_2_Left_256
*3035 PHY_EDGE_ROW_101_2_Right_109
*3036 PHY_EDGE_ROW_102_2_Left_257
*3037 PHY_EDGE_ROW_102_2_Right_110
*3038 PHY_EDGE_ROW_103_2_Left_258
*3039 PHY_EDGE_ROW_103_2_Right_111
*3040 PHY_EDGE_ROW_104_2_Left_259
*3041 PHY_EDGE_ROW_104_2_Right_112
*3042 PHY_EDGE_ROW_105_2_Left_260
*3043 PHY_EDGE_ROW_105_2_Right_113
*3044 PHY_EDGE_ROW_106_2_Left_261
*3045 PHY_EDGE_ROW_106_2_Right_114
*3046 PHY_EDGE_ROW_107_2_Left_262
*3047 PHY_EDGE_ROW_107_2_Right_115
*3048 PHY_EDGE_ROW_108_2_Left_263
*3049 PHY_EDGE_ROW_108_2_Right_116
*3050 PHY_EDGE_ROW_109_2_Left_264
*3051 PHY_EDGE_ROW_109_2_Right_117
*3052 PHY_EDGE_ROW_10_2_Left_165
*3053 PHY_EDGE_ROW_10_2_Right_18
*3054 PHY_EDGE_ROW_110_2_Left_265
*3055 PHY_EDGE_ROW_110_2_Right_118
*3056 PHY_EDGE_ROW_111_2_Left_266
*3057 PHY_EDGE_ROW_111_2_Right_119
*3058 PHY_EDGE_ROW_112_2_Left_267
*3059 PHY_EDGE_ROW_112_2_Right_120
*3060 PHY_EDGE_ROW_113_2_Left_268
*3061 PHY_EDGE_ROW_113_2_Right_121
*3062 PHY_EDGE_ROW_114_2_Left_269
*3063 PHY_EDGE_ROW_114_2_Right_122
*3064 PHY_EDGE_ROW_115_2_Left_270
*3065 PHY_EDGE_ROW_115_2_Right_123
*3066 PHY_EDGE_ROW_116_2_Left_271
*3067 PHY_EDGE_ROW_116_2_Right_124
*3068 PHY_EDGE_ROW_117_2_Left_272
*3069 PHY_EDGE_ROW_117_2_Right_125
*3070 PHY_EDGE_ROW_118_2_Left_273
*3071 PHY_EDGE_ROW_118_2_Right_126
*3072 PHY_EDGE_ROW_119_2_Left_274
*3073 PHY_EDGE_ROW_119_2_Right_127
*3074 PHY_EDGE_ROW_11_2_Left_166
*3075 PHY_EDGE_ROW_11_2_Right_19
*3076 PHY_EDGE_ROW_120_2_Left_275
*3077 PHY_EDGE_ROW_120_2_Right_128
*3078 PHY_EDGE_ROW_121_2_Left_276
*3079 PHY_EDGE_ROW_121_2_Right_129
*3080 PHY_EDGE_ROW_122_2_Left_277
*3081 PHY_EDGE_ROW_122_2_Right_130
*3082 PHY_EDGE_ROW_123_2_Left_278
*3083 PHY_EDGE_ROW_123_2_Right_131
*3084 PHY_EDGE_ROW_124_2_Left_279
*3085 PHY_EDGE_ROW_124_2_Right_132
*3086 PHY_EDGE_ROW_125_2_Left_280
*3087 PHY_EDGE_ROW_125_2_Right_133
*3088 PHY_EDGE_ROW_126_2_Left_281
*3089 PHY_EDGE_ROW_126_2_Right_134
*3090 PHY_EDGE_ROW_127_2_Left_282
*3091 PHY_EDGE_ROW_127_2_Right_135
*3092 PHY_EDGE_ROW_128_2_Left_283
*3093 PHY_EDGE_ROW_128_2_Right_136
*3094 PHY_EDGE_ROW_129_2_Left_284
*3095 PHY_EDGE_ROW_129_2_Right_137
*3096 PHY_EDGE_ROW_12_2_Left_167
*3097 PHY_EDGE_ROW_12_2_Right_20
*3098 PHY_EDGE_ROW_130_2_Left_285
*3099 PHY_EDGE_ROW_130_2_Right_138
*3100 PHY_EDGE_ROW_131_2_Left_286
*3101 PHY_EDGE_ROW_131_2_Right_139
*3102 PHY_EDGE_ROW_132_2_Left_287
*3103 PHY_EDGE_ROW_132_2_Right_140
*3104 PHY_EDGE_ROW_133_2_Left_288
*3105 PHY_EDGE_ROW_133_2_Right_141
*3106 PHY_EDGE_ROW_134_2_Left_289
*3107 PHY_EDGE_ROW_134_2_Right_142
*3108 PHY_EDGE_ROW_135_2_Left_290
*3109 PHY_EDGE_ROW_135_2_Right_143
*3110 PHY_EDGE_ROW_136_2_Left_291
*3111 PHY_EDGE_ROW_136_2_Right_144
*3112 PHY_EDGE_ROW_137_2_Left_292
*3113 PHY_EDGE_ROW_137_2_Right_145
*3114 PHY_EDGE_ROW_138_2_Left_293
*3115 PHY_EDGE_ROW_138_2_Right_146
*3116 PHY_EDGE_ROW_139_2_Left_294
*3117 PHY_EDGE_ROW_139_2_Right_147
*3118 PHY_EDGE_ROW_13_2_Left_168
*3119 PHY_EDGE_ROW_13_2_Right_21
*3120 PHY_EDGE_ROW_140_2_Left_295
*3121 PHY_EDGE_ROW_140_2_Right_148
*3122 PHY_EDGE_ROW_141_2_Left_296
*3123 PHY_EDGE_ROW_141_2_Right_149
*3124 PHY_EDGE_ROW_142_2_Left_297
*3125 PHY_EDGE_ROW_142_2_Right_150
*3126 PHY_EDGE_ROW_143_2_Left_298
*3127 PHY_EDGE_ROW_143_2_Right_151
*3128 PHY_EDGE_ROW_144_2_Left_299
*3129 PHY_EDGE_ROW_144_2_Right_152
*3130 PHY_EDGE_ROW_145_2_Left_300
*3131 PHY_EDGE_ROW_145_2_Right_153
*3132 PHY_EDGE_ROW_146_2_Left_301
*3133 PHY_EDGE_ROW_146_2_Right_154
*3134 PHY_EDGE_ROW_147_2_Left_302
*3135 PHY_EDGE_ROW_147_2_Right_155
*3136 PHY_EDGE_ROW_148_2_Left_303
*3137 PHY_EDGE_ROW_148_2_Right_156
*3138 PHY_EDGE_ROW_149_2_Left_304
*3139 PHY_EDGE_ROW_149_2_Right_157
*3140 PHY_EDGE_ROW_14_2_Left_169
*3141 PHY_EDGE_ROW_14_2_Right_22
*3142 PHY_EDGE_ROW_150_2_Left_305
*3143 PHY_EDGE_ROW_150_2_Right_158
*3144 PHY_EDGE_ROW_151_2_Left_306
*3145 PHY_EDGE_ROW_151_2_Right_159
*3146 PHY_EDGE_ROW_152_2_Left_307
*3147 PHY_EDGE_ROW_152_2_Right_160
*3148 PHY_EDGE_ROW_153_2_Left_308
*3149 PHY_EDGE_ROW_153_2_Right_161
*3150 PHY_EDGE_ROW_154_2_Left_309
*3151 PHY_EDGE_ROW_154_2_Right_162
*3152 PHY_EDGE_ROW_155_2_Left_310
*3153 PHY_EDGE_ROW_155_2_Right_163
*3154 PHY_EDGE_ROW_15_2_Left_170
*3155 PHY_EDGE_ROW_15_2_Right_23
*3156 PHY_EDGE_ROW_16_2_Left_171
*3157 PHY_EDGE_ROW_16_2_Right_24
*3158 PHY_EDGE_ROW_17_2_Left_172
*3159 PHY_EDGE_ROW_17_2_Right_25
*3160 PHY_EDGE_ROW_18_2_Left_173
*3161 PHY_EDGE_ROW_18_2_Right_26
*3162 PHY_EDGE_ROW_19_2_Left_174
*3163 PHY_EDGE_ROW_19_2_Right_27
*3164 PHY_EDGE_ROW_1_Left_1
*3165 PHY_EDGE_ROW_1_Right_10
*3166 PHY_EDGE_ROW_20_2_Left_175
*3167 PHY_EDGE_ROW_20_2_Right_28
*3168 PHY_EDGE_ROW_21_2_Left_176
*3169 PHY_EDGE_ROW_21_2_Right_29
*3170 PHY_EDGE_ROW_22_2_Left_177
*3171 PHY_EDGE_ROW_22_2_Right_30
*3172 PHY_EDGE_ROW_23_2_Left_178
*3173 PHY_EDGE_ROW_23_2_Right_31
*3174 PHY_EDGE_ROW_24_2_Left_179
*3175 PHY_EDGE_ROW_24_2_Right_32
*3176 PHY_EDGE_ROW_25_2_Left_180
*3177 PHY_EDGE_ROW_25_2_Right_33
*3178 PHY_EDGE_ROW_26_2_Left_181
*3179 PHY_EDGE_ROW_26_2_Right_34
*3180 PHY_EDGE_ROW_27_2_Left_182
*3181 PHY_EDGE_ROW_27_2_Right_35
*3182 PHY_EDGE_ROW_28_2_Left_183
*3183 PHY_EDGE_ROW_28_2_Right_36
*3184 PHY_EDGE_ROW_29_2_Left_184
*3185 PHY_EDGE_ROW_29_2_Right_37
*3186 PHY_EDGE_ROW_2_Left_2
*3187 PHY_EDGE_ROW_2_Right_11
*3188 PHY_EDGE_ROW_30_2_Left_185
*3189 PHY_EDGE_ROW_30_2_Right_38
*3190 PHY_EDGE_ROW_31_2_Left_186
*3191 PHY_EDGE_ROW_31_2_Right_39
*3192 PHY_EDGE_ROW_32_2_Left_187
*3193 PHY_EDGE_ROW_32_2_Right_40
*3194 PHY_EDGE_ROW_33_2_Left_188
*3195 PHY_EDGE_ROW_33_2_Right_41
*3196 PHY_EDGE_ROW_34_2_Left_189
*3197 PHY_EDGE_ROW_34_2_Right_42
*3198 PHY_EDGE_ROW_35_2_Left_190
*3199 PHY_EDGE_ROW_35_2_Right_43
*3200 PHY_EDGE_ROW_36_2_Left_191
*3201 PHY_EDGE_ROW_36_2_Right_44
*3202 PHY_EDGE_ROW_37_2_Left_192
*3203 PHY_EDGE_ROW_37_2_Right_45
*3204 PHY_EDGE_ROW_38_2_Left_193
*3205 PHY_EDGE_ROW_38_2_Right_46
*3206 PHY_EDGE_ROW_39_2_Left_194
*3207 PHY_EDGE_ROW_39_2_Right_47
*3208 PHY_EDGE_ROW_3_Left_3
*3209 PHY_EDGE_ROW_3_Right_12
*3210 PHY_EDGE_ROW_40_2_Left_195
*3211 PHY_EDGE_ROW_40_2_Right_48
*3212 PHY_EDGE_ROW_41_2_Left_196
*3213 PHY_EDGE_ROW_41_2_Right_49
*3214 PHY_EDGE_ROW_42_2_Left_197
*3215 PHY_EDGE_ROW_42_2_Right_50
*3216 PHY_EDGE_ROW_43_2_Left_198
*3217 PHY_EDGE_ROW_43_2_Right_51
*3218 PHY_EDGE_ROW_44_2_Left_199
*3219 PHY_EDGE_ROW_44_2_Right_52
*3220 PHY_EDGE_ROW_45_2_Left_200
*3221 PHY_EDGE_ROW_45_2_Right_53
*3222 PHY_EDGE_ROW_46_2_Left_201
*3223 PHY_EDGE_ROW_46_2_Right_54
*3224 PHY_EDGE_ROW_47_2_Left_202
*3225 PHY_EDGE_ROW_47_2_Right_55
*3226 PHY_EDGE_ROW_48_2_Left_203
*3227 PHY_EDGE_ROW_48_2_Right_56
*3228 PHY_EDGE_ROW_49_2_Left_204
*3229 PHY_EDGE_ROW_49_2_Right_57
*3230 PHY_EDGE_ROW_4_Left_4
*3231 PHY_EDGE_ROW_4_Right_13
*3232 PHY_EDGE_ROW_50_2_Left_205
*3233 PHY_EDGE_ROW_50_2_Right_58
*3234 PHY_EDGE_ROW_51_2_Left_206
*3235 PHY_EDGE_ROW_51_2_Right_59
*3236 PHY_EDGE_ROW_52_2_Left_207
*3237 PHY_EDGE_ROW_52_2_Right_60
*3238 PHY_EDGE_ROW_53_2_Left_208
*3239 PHY_EDGE_ROW_53_2_Right_61
*3240 PHY_EDGE_ROW_54_2_Left_209
*3241 PHY_EDGE_ROW_54_2_Right_62
*3242 PHY_EDGE_ROW_55_2_Left_210
*3243 PHY_EDGE_ROW_55_2_Right_63
*3244 PHY_EDGE_ROW_56_2_Left_211
*3245 PHY_EDGE_ROW_56_2_Right_64
*3246 PHY_EDGE_ROW_57_2_Left_212
*3247 PHY_EDGE_ROW_57_2_Right_65
*3248 PHY_EDGE_ROW_58_2_Left_213
*3249 PHY_EDGE_ROW_58_2_Right_66
*3250 PHY_EDGE_ROW_59_2_Left_214
*3251 PHY_EDGE_ROW_59_2_Right_67
*3252 PHY_EDGE_ROW_5_Left_5
*3253 PHY_EDGE_ROW_5_Right_14
*3254 PHY_EDGE_ROW_60_2_Left_215
*3255 PHY_EDGE_ROW_60_2_Right_68
*3256 PHY_EDGE_ROW_61_2_Left_216
*3257 PHY_EDGE_ROW_61_2_Right_69
*3258 PHY_EDGE_ROW_62_2_Left_217
*3259 PHY_EDGE_ROW_62_2_Right_70
*3260 PHY_EDGE_ROW_63_2_Left_218
*3261 PHY_EDGE_ROW_63_2_Right_71
*3262 PHY_EDGE_ROW_64_2_Left_219
*3263 PHY_EDGE_ROW_64_2_Right_72
*3264 PHY_EDGE_ROW_65_2_Left_220
*3265 PHY_EDGE_ROW_65_2_Right_73
*3266 PHY_EDGE_ROW_66_2_Left_221
*3267 PHY_EDGE_ROW_66_2_Right_74
*3268 PHY_EDGE_ROW_67_2_Left_222
*3269 PHY_EDGE_ROW_67_2_Right_75
*3270 PHY_EDGE_ROW_68_2_Left_223
*3271 PHY_EDGE_ROW_68_2_Right_76
*3272 PHY_EDGE_ROW_69_2_Left_224
*3273 PHY_EDGE_ROW_69_2_Right_77
*3274 PHY_EDGE_ROW_6_Left_6
*3275 PHY_EDGE_ROW_6_Right_15
*3276 PHY_EDGE_ROW_70_2_Left_225
*3277 PHY_EDGE_ROW_70_2_Right_78
*3278 PHY_EDGE_ROW_71_2_Left_226
*3279 PHY_EDGE_ROW_71_2_Right_79
*3280 PHY_EDGE_ROW_72_2_Left_227
*3281 PHY_EDGE_ROW_72_2_Right_80
*3282 PHY_EDGE_ROW_73_2_Left_228
*3283 PHY_EDGE_ROW_73_2_Right_81
*3284 PHY_EDGE_ROW_74_2_Left_229
*3285 PHY_EDGE_ROW_74_2_Right_82
*3286 PHY_EDGE_ROW_75_2_Left_230
*3287 PHY_EDGE_ROW_75_2_Right_83
*3288 PHY_EDGE_ROW_76_2_Left_231
*3289 PHY_EDGE_ROW_76_2_Right_84
*3290 PHY_EDGE_ROW_77_2_Left_232
*3291 PHY_EDGE_ROW_77_2_Right_85
*3292 PHY_EDGE_ROW_78_2_Left_233
*3293 PHY_EDGE_ROW_78_2_Right_86
*3294 PHY_EDGE_ROW_79_2_Left_234
*3295 PHY_EDGE_ROW_79_2_Right_87
*3296 PHY_EDGE_ROW_7_Left_7
*3297 PHY_EDGE_ROW_7_Right_16
*3298 PHY_EDGE_ROW_80_2_Left_235
*3299 PHY_EDGE_ROW_80_2_Right_88
*3300 PHY_EDGE_ROW_81_2_Left_236
*3301 PHY_EDGE_ROW_81_2_Right_89
*3302 PHY_EDGE_ROW_82_2_Left_237
*3303 PHY_EDGE_ROW_82_2_Right_90
*3304 PHY_EDGE_ROW_83_2_Left_238
*3305 PHY_EDGE_ROW_83_2_Right_91
*3306 PHY_EDGE_ROW_84_2_Left_239
*3307 PHY_EDGE_ROW_84_2_Right_92
*3308 PHY_EDGE_ROW_85_2_Left_240
*3309 PHY_EDGE_ROW_85_2_Right_93
*3310 PHY_EDGE_ROW_86_2_Left_241
*3311 PHY_EDGE_ROW_86_2_Right_94
*3312 PHY_EDGE_ROW_87_2_Left_242
*3313 PHY_EDGE_ROW_87_2_Right_95
*3314 PHY_EDGE_ROW_88_2_Left_243
*3315 PHY_EDGE_ROW_88_2_Right_96
*3316 PHY_EDGE_ROW_89_2_Left_244
*3317 PHY_EDGE_ROW_89_2_Right_97
*3318 PHY_EDGE_ROW_8_Left_8
*3319 PHY_EDGE_ROW_8_Right_17
*3320 PHY_EDGE_ROW_90_2_Left_245
*3321 PHY_EDGE_ROW_90_2_Right_98
*3322 PHY_EDGE_ROW_91_2_Left_246
*3323 PHY_EDGE_ROW_91_2_Right_99
*3324 PHY_EDGE_ROW_92_2_Left_247
*3325 PHY_EDGE_ROW_92_2_Right_100
*3326 PHY_EDGE_ROW_93_2_Left_248
*3327 PHY_EDGE_ROW_93_2_Right_101
*3328 PHY_EDGE_ROW_94_2_Left_249
*3329 PHY_EDGE_ROW_94_2_Right_102
*3330 PHY_EDGE_ROW_95_2_Left_250
*3331 PHY_EDGE_ROW_95_2_Right_103
*3332 PHY_EDGE_ROW_96_2_Left_251
*3333 PHY_EDGE_ROW_96_2_Right_104
*3334 PHY_EDGE_ROW_97_2_Left_252
*3335 PHY_EDGE_ROW_97_2_Right_105
*3336 PHY_EDGE_ROW_98_2_Left_253
*3337 PHY_EDGE_ROW_98_2_Right_106
*3338 PHY_EDGE_ROW_99_2_Left_254
*3339 PHY_EDGE_ROW_99_2_Right_107
*3340 PHY_EDGE_ROW_9_2_Left_311
*3341 PHY_EDGE_ROW_9_2_Right_164
*3342 TAP_TAPCELL_ROW_0_312
*3343 TAP_TAPCELL_ROW_0_313
*3344 TAP_TAPCELL_ROW_0_314
*3345 TAP_TAPCELL_ROW_0_315
*3346 TAP_TAPCELL_ROW_0_316
*3347 TAP_TAPCELL_ROW_0_317
*3348 TAP_TAPCELL_ROW_0_318
*3349 TAP_TAPCELL_ROW_0_319
*3350 TAP_TAPCELL_ROW_0_320
*3351 TAP_TAPCELL_ROW_0_321
*3352 TAP_TAPCELL_ROW_0_322
*3353 TAP_TAPCELL_ROW_0_323
*3354 TAP_TAPCELL_ROW_0_324
*3355 TAP_TAPCELL_ROW_0_325
*3356 TAP_TAPCELL_ROW_0_326
*3357 TAP_TAPCELL_ROW_0_327
*3358 TAP_TAPCELL_ROW_0_328
*3359 TAP_TAPCELL_ROW_0_329
*3360 TAP_TAPCELL_ROW_0_330
*3361 TAP_TAPCELL_ROW_0_331
*3362 TAP_TAPCELL_ROW_0_332
*3363 TAP_TAPCELL_ROW_0_333
*3364 TAP_TAPCELL_ROW_0_334
*3365 TAP_TAPCELL_ROW_0_335
*3366 TAP_TAPCELL_ROW_0_336
*3367 TAP_TAPCELL_ROW_0_337
*3368 TAP_TAPCELL_ROW_0_338
*3369 TAP_TAPCELL_ROW_0_339
*3370 TAP_TAPCELL_ROW_100_2_601
*3371 TAP_TAPCELL_ROW_100_2_602
*3372 TAP_TAPCELL_ROW_101_2_603
*3373 TAP_TAPCELL_ROW_102_2_604
*3374 TAP_TAPCELL_ROW_102_2_605
*3375 TAP_TAPCELL_ROW_103_2_606
*3376 TAP_TAPCELL_ROW_104_2_607
*3377 TAP_TAPCELL_ROW_104_2_608
*3378 TAP_TAPCELL_ROW_105_2_609
*3379 TAP_TAPCELL_ROW_106_2_610
*3380 TAP_TAPCELL_ROW_106_2_611
*3381 TAP_TAPCELL_ROW_107_2_612
*3382 TAP_TAPCELL_ROW_108_2_613
*3383 TAP_TAPCELL_ROW_108_2_614
*3384 TAP_TAPCELL_ROW_109_2_615
*3385 TAP_TAPCELL_ROW_10_2_466
*3386 TAP_TAPCELL_ROW_10_2_467
*3387 TAP_TAPCELL_ROW_110_2_616
*3388 TAP_TAPCELL_ROW_110_2_617
*3389 TAP_TAPCELL_ROW_111_2_618
*3390 TAP_TAPCELL_ROW_112_2_619
*3391 TAP_TAPCELL_ROW_112_2_620
*3392 TAP_TAPCELL_ROW_113_2_621
*3393 TAP_TAPCELL_ROW_114_2_622
*3394 TAP_TAPCELL_ROW_114_2_623
*3395 TAP_TAPCELL_ROW_115_2_624
*3396 TAP_TAPCELL_ROW_116_2_625
*3397 TAP_TAPCELL_ROW_116_2_626
*3398 TAP_TAPCELL_ROW_117_2_627
*3399 TAP_TAPCELL_ROW_118_2_628
*3400 TAP_TAPCELL_ROW_118_2_629
*3401 TAP_TAPCELL_ROW_119_2_630
*3402 TAP_TAPCELL_ROW_11_2_468
*3403 TAP_TAPCELL_ROW_120_2_631
*3404 TAP_TAPCELL_ROW_120_2_632
*3405 TAP_TAPCELL_ROW_121_2_633
*3406 TAP_TAPCELL_ROW_122_2_634
*3407 TAP_TAPCELL_ROW_122_2_635
*3408 TAP_TAPCELL_ROW_123_2_636
*3409 TAP_TAPCELL_ROW_124_2_637
*3410 TAP_TAPCELL_ROW_124_2_638
*3411 TAP_TAPCELL_ROW_125_2_639
*3412 TAP_TAPCELL_ROW_126_2_640
*3413 TAP_TAPCELL_ROW_126_2_641
*3414 TAP_TAPCELL_ROW_127_2_642
*3415 TAP_TAPCELL_ROW_128_2_643
*3416 TAP_TAPCELL_ROW_128_2_644
*3417 TAP_TAPCELL_ROW_129_2_645
*3418 TAP_TAPCELL_ROW_12_2_469
*3419 TAP_TAPCELL_ROW_12_2_470
*3420 TAP_TAPCELL_ROW_130_2_646
*3421 TAP_TAPCELL_ROW_130_2_647
*3422 TAP_TAPCELL_ROW_131_2_648
*3423 TAP_TAPCELL_ROW_132_2_649
*3424 TAP_TAPCELL_ROW_132_2_650
*3425 TAP_TAPCELL_ROW_133_2_651
*3426 TAP_TAPCELL_ROW_134_2_652
*3427 TAP_TAPCELL_ROW_134_2_653
*3428 TAP_TAPCELL_ROW_135_2_654
*3429 TAP_TAPCELL_ROW_136_2_655
*3430 TAP_TAPCELL_ROW_136_2_656
*3431 TAP_TAPCELL_ROW_137_2_657
*3432 TAP_TAPCELL_ROW_138_2_658
*3433 TAP_TAPCELL_ROW_138_2_659
*3434 TAP_TAPCELL_ROW_139_2_660
*3435 TAP_TAPCELL_ROW_13_2_471
*3436 TAP_TAPCELL_ROW_140_2_661
*3437 TAP_TAPCELL_ROW_140_2_662
*3438 TAP_TAPCELL_ROW_141_2_663
*3439 TAP_TAPCELL_ROW_142_2_664
*3440 TAP_TAPCELL_ROW_142_2_665
*3441 TAP_TAPCELL_ROW_143_2_666
*3442 TAP_TAPCELL_ROW_144_2_667
*3443 TAP_TAPCELL_ROW_144_2_668
*3444 TAP_TAPCELL_ROW_145_2_669
*3445 TAP_TAPCELL_ROW_146_2_670
*3446 TAP_TAPCELL_ROW_146_2_671
*3447 TAP_TAPCELL_ROW_147_2_672
*3448 TAP_TAPCELL_ROW_148_2_673
*3449 TAP_TAPCELL_ROW_148_2_674
*3450 TAP_TAPCELL_ROW_149_2_675
*3451 TAP_TAPCELL_ROW_14_2_472
*3452 TAP_TAPCELL_ROW_14_2_473
*3453 TAP_TAPCELL_ROW_150_2_676
*3454 TAP_TAPCELL_ROW_150_2_677
*3455 TAP_TAPCELL_ROW_151_2_678
*3456 TAP_TAPCELL_ROW_152_2_679
*3457 TAP_TAPCELL_ROW_152_2_680
*3458 TAP_TAPCELL_ROW_153_2_681
*3459 TAP_TAPCELL_ROW_154_2_682
*3460 TAP_TAPCELL_ROW_154_2_683
*3461 TAP_TAPCELL_ROW_155_2_684
*3462 TAP_TAPCELL_ROW_155_2_685
*3463 TAP_TAPCELL_ROW_155_2_686
*3464 TAP_TAPCELL_ROW_15_2_474
*3465 TAP_TAPCELL_ROW_16_2_475
*3466 TAP_TAPCELL_ROW_16_2_476
*3467 TAP_TAPCELL_ROW_17_2_477
*3468 TAP_TAPCELL_ROW_18_2_478
*3469 TAP_TAPCELL_ROW_18_2_479
*3470 TAP_TAPCELL_ROW_19_2_480
*3471 TAP_TAPCELL_ROW_1_340
*3472 TAP_TAPCELL_ROW_1_341
*3473 TAP_TAPCELL_ROW_1_342
*3474 TAP_TAPCELL_ROW_1_343
*3475 TAP_TAPCELL_ROW_1_344
*3476 TAP_TAPCELL_ROW_1_345
*3477 TAP_TAPCELL_ROW_1_346
*3478 TAP_TAPCELL_ROW_1_347
*3479 TAP_TAPCELL_ROW_1_348
*3480 TAP_TAPCELL_ROW_1_349
*3481 TAP_TAPCELL_ROW_1_350
*3482 TAP_TAPCELL_ROW_1_351
*3483 TAP_TAPCELL_ROW_1_352
*3484 TAP_TAPCELL_ROW_1_353
*3485 TAP_TAPCELL_ROW_20_2_481
*3486 TAP_TAPCELL_ROW_20_2_482
*3487 TAP_TAPCELL_ROW_21_2_483
*3488 TAP_TAPCELL_ROW_22_2_484
*3489 TAP_TAPCELL_ROW_22_2_485
*3490 TAP_TAPCELL_ROW_23_2_486
*3491 TAP_TAPCELL_ROW_24_2_487
*3492 TAP_TAPCELL_ROW_24_2_488
*3493 TAP_TAPCELL_ROW_25_2_489
*3494 TAP_TAPCELL_ROW_26_2_490
*3495 TAP_TAPCELL_ROW_26_2_491
*3496 TAP_TAPCELL_ROW_27_2_492
*3497 TAP_TAPCELL_ROW_28_2_493
*3498 TAP_TAPCELL_ROW_28_2_494
*3499 TAP_TAPCELL_ROW_29_2_495
*3500 TAP_TAPCELL_ROW_2_354
*3501 TAP_TAPCELL_ROW_2_355
*3502 TAP_TAPCELL_ROW_2_356
*3503 TAP_TAPCELL_ROW_2_357
*3504 TAP_TAPCELL_ROW_2_358
*3505 TAP_TAPCELL_ROW_2_359
*3506 TAP_TAPCELL_ROW_2_360
*3507 TAP_TAPCELL_ROW_2_361
*3508 TAP_TAPCELL_ROW_2_362
*3509 TAP_TAPCELL_ROW_2_363
*3510 TAP_TAPCELL_ROW_2_364
*3511 TAP_TAPCELL_ROW_2_365
*3512 TAP_TAPCELL_ROW_2_366
*3513 TAP_TAPCELL_ROW_2_367
*3514 TAP_TAPCELL_ROW_30_2_496
*3515 TAP_TAPCELL_ROW_30_2_497
*3516 TAP_TAPCELL_ROW_31_2_498
*3517 TAP_TAPCELL_ROW_32_2_499
*3518 TAP_TAPCELL_ROW_32_2_500
*3519 TAP_TAPCELL_ROW_33_2_501
*3520 TAP_TAPCELL_ROW_34_2_502
*3521 TAP_TAPCELL_ROW_34_2_503
*3522 TAP_TAPCELL_ROW_35_2_504
*3523 TAP_TAPCELL_ROW_36_2_505
*3524 TAP_TAPCELL_ROW_36_2_506
*3525 TAP_TAPCELL_ROW_37_2_507
*3526 TAP_TAPCELL_ROW_38_2_508
*3527 TAP_TAPCELL_ROW_38_2_509
*3528 TAP_TAPCELL_ROW_39_2_510
*3529 TAP_TAPCELL_ROW_3_368
*3530 TAP_TAPCELL_ROW_3_369
*3531 TAP_TAPCELL_ROW_3_370
*3532 TAP_TAPCELL_ROW_3_371
*3533 TAP_TAPCELL_ROW_3_372
*3534 TAP_TAPCELL_ROW_3_373
*3535 TAP_TAPCELL_ROW_3_374
*3536 TAP_TAPCELL_ROW_3_375
*3537 TAP_TAPCELL_ROW_3_376
*3538 TAP_TAPCELL_ROW_3_377
*3539 TAP_TAPCELL_ROW_3_378
*3540 TAP_TAPCELL_ROW_3_379
*3541 TAP_TAPCELL_ROW_3_380
*3542 TAP_TAPCELL_ROW_3_381
*3543 TAP_TAPCELL_ROW_40_2_511
*3544 TAP_TAPCELL_ROW_40_2_512
*3545 TAP_TAPCELL_ROW_41_2_513
*3546 TAP_TAPCELL_ROW_42_2_514
*3547 TAP_TAPCELL_ROW_42_2_515
*3548 TAP_TAPCELL_ROW_43_2_516
*3549 TAP_TAPCELL_ROW_44_2_517
*3550 TAP_TAPCELL_ROW_44_2_518
*3551 TAP_TAPCELL_ROW_45_2_519
*3552 TAP_TAPCELL_ROW_46_2_520
*3553 TAP_TAPCELL_ROW_46_2_521
*3554 TAP_TAPCELL_ROW_47_2_522
*3555 TAP_TAPCELL_ROW_48_2_523
*3556 TAP_TAPCELL_ROW_48_2_524
*3557 TAP_TAPCELL_ROW_49_2_525
*3558 TAP_TAPCELL_ROW_4_382
*3559 TAP_TAPCELL_ROW_4_383
*3560 TAP_TAPCELL_ROW_4_384
*3561 TAP_TAPCELL_ROW_4_385
*3562 TAP_TAPCELL_ROW_4_386
*3563 TAP_TAPCELL_ROW_4_387
*3564 TAP_TAPCELL_ROW_4_388
*3565 TAP_TAPCELL_ROW_4_389
*3566 TAP_TAPCELL_ROW_4_390
*3567 TAP_TAPCELL_ROW_4_391
*3568 TAP_TAPCELL_ROW_4_392
*3569 TAP_TAPCELL_ROW_4_393
*3570 TAP_TAPCELL_ROW_4_394
*3571 TAP_TAPCELL_ROW_4_395
*3572 TAP_TAPCELL_ROW_50_2_526
*3573 TAP_TAPCELL_ROW_50_2_527
*3574 TAP_TAPCELL_ROW_51_2_528
*3575 TAP_TAPCELL_ROW_52_2_529
*3576 TAP_TAPCELL_ROW_52_2_530
*3577 TAP_TAPCELL_ROW_53_2_531
*3578 TAP_TAPCELL_ROW_54_2_532
*3579 TAP_TAPCELL_ROW_54_2_533
*3580 TAP_TAPCELL_ROW_55_2_534
*3581 TAP_TAPCELL_ROW_56_2_535
*3582 TAP_TAPCELL_ROW_56_2_536
*3583 TAP_TAPCELL_ROW_57_2_537
*3584 TAP_TAPCELL_ROW_58_2_538
*3585 TAP_TAPCELL_ROW_58_2_539
*3586 TAP_TAPCELL_ROW_59_2_540
*3587 TAP_TAPCELL_ROW_5_396
*3588 TAP_TAPCELL_ROW_5_397
*3589 TAP_TAPCELL_ROW_5_398
*3590 TAP_TAPCELL_ROW_5_399
*3591 TAP_TAPCELL_ROW_5_400
*3592 TAP_TAPCELL_ROW_5_401
*3593 TAP_TAPCELL_ROW_5_402
*3594 TAP_TAPCELL_ROW_5_403
*3595 TAP_TAPCELL_ROW_5_404
*3596 TAP_TAPCELL_ROW_5_405
*3597 TAP_TAPCELL_ROW_5_406
*3598 TAP_TAPCELL_ROW_5_407
*3599 TAP_TAPCELL_ROW_5_408
*3600 TAP_TAPCELL_ROW_5_409
*3601 TAP_TAPCELL_ROW_60_2_541
*3602 TAP_TAPCELL_ROW_60_2_542
*3603 TAP_TAPCELL_ROW_61_2_543
*3604 TAP_TAPCELL_ROW_62_2_544
*3605 TAP_TAPCELL_ROW_62_2_545
*3606 TAP_TAPCELL_ROW_63_2_546
*3607 TAP_TAPCELL_ROW_64_2_547
*3608 TAP_TAPCELL_ROW_64_2_548
*3609 TAP_TAPCELL_ROW_65_2_549
*3610 TAP_TAPCELL_ROW_66_2_550
*3611 TAP_TAPCELL_ROW_66_2_551
*3612 TAP_TAPCELL_ROW_67_2_552
*3613 TAP_TAPCELL_ROW_68_2_553
*3614 TAP_TAPCELL_ROW_68_2_554
*3615 TAP_TAPCELL_ROW_69_2_555
*3616 TAP_TAPCELL_ROW_6_410
*3617 TAP_TAPCELL_ROW_6_411
*3618 TAP_TAPCELL_ROW_6_412
*3619 TAP_TAPCELL_ROW_6_413
*3620 TAP_TAPCELL_ROW_6_414
*3621 TAP_TAPCELL_ROW_6_415
*3622 TAP_TAPCELL_ROW_6_416
*3623 TAP_TAPCELL_ROW_6_417
*3624 TAP_TAPCELL_ROW_6_418
*3625 TAP_TAPCELL_ROW_6_419
*3626 TAP_TAPCELL_ROW_6_420
*3627 TAP_TAPCELL_ROW_6_421
*3628 TAP_TAPCELL_ROW_6_422
*3629 TAP_TAPCELL_ROW_6_423
*3630 TAP_TAPCELL_ROW_70_2_556
*3631 TAP_TAPCELL_ROW_70_2_557
*3632 TAP_TAPCELL_ROW_71_2_558
*3633 TAP_TAPCELL_ROW_72_2_559
*3634 TAP_TAPCELL_ROW_72_2_560
*3635 TAP_TAPCELL_ROW_73_2_561
*3636 TAP_TAPCELL_ROW_74_2_562
*3637 TAP_TAPCELL_ROW_74_2_563
*3638 TAP_TAPCELL_ROW_75_2_564
*3639 TAP_TAPCELL_ROW_76_2_565
*3640 TAP_TAPCELL_ROW_76_2_566
*3641 TAP_TAPCELL_ROW_77_2_567
*3642 TAP_TAPCELL_ROW_78_2_568
*3643 TAP_TAPCELL_ROW_78_2_569
*3644 TAP_TAPCELL_ROW_79_2_570
*3645 TAP_TAPCELL_ROW_7_424
*3646 TAP_TAPCELL_ROW_7_425
*3647 TAP_TAPCELL_ROW_7_426
*3648 TAP_TAPCELL_ROW_7_427
*3649 TAP_TAPCELL_ROW_7_428
*3650 TAP_TAPCELL_ROW_7_429
*3651 TAP_TAPCELL_ROW_7_430
*3652 TAP_TAPCELL_ROW_7_431
*3653 TAP_TAPCELL_ROW_7_432
*3654 TAP_TAPCELL_ROW_7_433
*3655 TAP_TAPCELL_ROW_7_434
*3656 TAP_TAPCELL_ROW_7_435
*3657 TAP_TAPCELL_ROW_7_436
*3658 TAP_TAPCELL_ROW_7_437
*3659 TAP_TAPCELL_ROW_80_2_571
*3660 TAP_TAPCELL_ROW_80_2_572
*3661 TAP_TAPCELL_ROW_81_2_573
*3662 TAP_TAPCELL_ROW_82_2_574
*3663 TAP_TAPCELL_ROW_82_2_575
*3664 TAP_TAPCELL_ROW_83_2_576
*3665 TAP_TAPCELL_ROW_84_2_577
*3666 TAP_TAPCELL_ROW_84_2_578
*3667 TAP_TAPCELL_ROW_85_2_579
*3668 TAP_TAPCELL_ROW_86_2_580
*3669 TAP_TAPCELL_ROW_86_2_581
*3670 TAP_TAPCELL_ROW_87_2_582
*3671 TAP_TAPCELL_ROW_88_2_583
*3672 TAP_TAPCELL_ROW_88_2_584
*3673 TAP_TAPCELL_ROW_89_2_585
*3674 TAP_TAPCELL_ROW_8_438
*3675 TAP_TAPCELL_ROW_8_439
*3676 TAP_TAPCELL_ROW_8_440
*3677 TAP_TAPCELL_ROW_8_441
*3678 TAP_TAPCELL_ROW_8_442
*3679 TAP_TAPCELL_ROW_8_443
*3680 TAP_TAPCELL_ROW_8_444
*3681 TAP_TAPCELL_ROW_8_445
*3682 TAP_TAPCELL_ROW_8_446
*3683 TAP_TAPCELL_ROW_8_447
*3684 TAP_TAPCELL_ROW_8_448
*3685 TAP_TAPCELL_ROW_8_449
*3686 TAP_TAPCELL_ROW_8_450
*3687 TAP_TAPCELL_ROW_8_451
*3688 TAP_TAPCELL_ROW_8_452
*3689 TAP_TAPCELL_ROW_8_453
*3690 TAP_TAPCELL_ROW_8_454
*3691 TAP_TAPCELL_ROW_8_455
*3692 TAP_TAPCELL_ROW_8_456
*3693 TAP_TAPCELL_ROW_8_457
*3694 TAP_TAPCELL_ROW_8_458
*3695 TAP_TAPCELL_ROW_8_459
*3696 TAP_TAPCELL_ROW_8_460
*3697 TAP_TAPCELL_ROW_8_461
*3698 TAP_TAPCELL_ROW_8_462
*3699 TAP_TAPCELL_ROW_8_463
*3700 TAP_TAPCELL_ROW_8_464
*3701 TAP_TAPCELL_ROW_8_465
*3702 TAP_TAPCELL_ROW_90_2_586
*3703 TAP_TAPCELL_ROW_90_2_587
*3704 TAP_TAPCELL_ROW_91_2_588
*3705 TAP_TAPCELL_ROW_92_2_589
*3706 TAP_TAPCELL_ROW_92_2_590
*3707 TAP_TAPCELL_ROW_93_2_591
*3708 TAP_TAPCELL_ROW_94_2_592
*3709 TAP_TAPCELL_ROW_94_2_593
*3710 TAP_TAPCELL_ROW_95_2_594
*3711 TAP_TAPCELL_ROW_96_2_595
*3712 TAP_TAPCELL_ROW_96_2_596
*3713 TAP_TAPCELL_ROW_97_2_597
*3714 TAP_TAPCELL_ROW_98_2_598
*3715 TAP_TAPCELL_ROW_98_2_599
*3716 TAP_TAPCELL_ROW_99_2_600
*3717 TAP_TAPCELL_ROW_9_2_687
*3718 _10_
*3719 _11_
*3720 _12_
*3721 _13_
*3722 _14_
*3723 _15_
*3724 _16_
*3725 _17_
*3726 _18_
*3727 _19_
*3728 _20_
*3729 _21_
*3730 _22_
*3731 _23_
*3732 _24_
*3733 _25_
*3734 _26_
*3735 _27_
*3736 _28_
*3737 _29_
*3738 _30_
*3739 _31_
*3740 _32_
*3741 _33_
*3742 _34_
*3743 _35_
*3744 _36_
*3745 _37_
*3746 _38_
*3747 _39_
*3748 _40_
*3749 _41_
*3750 _42_
*3751 _43_
*3752 _44_
*3753 _45_
*3754 clkbuf_0_wb_clk_i
*3755 clkbuf_1_0__f_wb_clk_i
*3756 clkbuf_1_1__f_wb_clk_i
*3757 clkload0
*3758 fanout84
*3759 fanout85
*3760 fanout86
*3761 fanout87
*3762 fanout88
*3763 fanout89
*3764 i_sram
*3765 i_sram_90
*3766 i_sram_91
*3767 i_sram_92
*3768 i_sram_93
*3769 i_sram_94
*3770 i_sram_95
*3771 i_sram_96
*3772 i_sram_97
*3773 i_sram_98
*3774 input1
*3775 input10
*3776 input11
*3777 input12
*3778 input13
*3779 input14
*3780 input15
*3781 input16
*3782 input17
*3783 input18
*3784 input19
*3785 input2
*3786 input20
*3787 input21
*3788 input22
*3789 input23
*3790 input24
*3791 input25
*3792 input26
*3793 input27
*3794 input28
*3795 input29
*3796 input3
*3797 input30
*3798 input31
*3799 input32
*3800 input33
*3801 input34
*3802 input35
*3803 input36
*3804 input37
*3805 input38
*3806 input39
*3807 input4
*3808 input40
*3809 input41
*3810 input42
*3811 input43
*3812 input44
*3813 input45
*3814 input46
*3815 input47
*3816 input48
*3817 input49
*3818 input5
*3819 input50
*3820 input6
*3821 input7
*3822 input8
*3823 input9
*3824 output51
*3825 output52
*3826 output53
*3827 output54
*3828 output55
*3829 output56
*3830 output57
*3831 output58
*3832 output59
*3833 output60
*3834 output61
*3835 output62
*3836 output63
*3837 output64
*3838 output65
*3839 output66
*3840 output67
*3841 output68
*3842 output69
*3843 output70
*3844 output71
*3845 output72
*3846 output73
*3847 output74
*3848 output75
*3849 output76
*3850 output77
*3851 output78
*3852 output79
*3853 output80
*3854 output81
*3855 output82
*3856 output83

*PORTS
wb_clk_i I
wb_rst_i I
wbs_ack_o O
wbs_adr_i[0] I
wbs_adr_i[10] I
wbs_adr_i[11] I
wbs_adr_i[12] I
wbs_adr_i[13] I
wbs_adr_i[14] I
wbs_adr_i[15] I
wbs_adr_i[16] I
wbs_adr_i[17] I
wbs_adr_i[18] I
wbs_adr_i[19] I
wbs_adr_i[1] I
wbs_adr_i[20] I
wbs_adr_i[21] I
wbs_adr_i[22] I
wbs_adr_i[23] I
wbs_adr_i[24] I
wbs_adr_i[25] I
wbs_adr_i[26] I
wbs_adr_i[27] I
wbs_adr_i[28] I
wbs_adr_i[29] I
wbs_adr_i[2] I
wbs_adr_i[30] I
wbs_adr_i[31] I
wbs_adr_i[3] I
wbs_adr_i[4] I
wbs_adr_i[5] I
wbs_adr_i[6] I
wbs_adr_i[7] I
wbs_adr_i[8] I
wbs_adr_i[9] I
wbs_cyc_i I
wbs_dat_i[0] I
wbs_dat_i[10] I
wbs_dat_i[11] I
wbs_dat_i[12] I
wbs_dat_i[13] I
wbs_dat_i[14] I
wbs_dat_i[15] I
wbs_dat_i[16] I
wbs_dat_i[17] I
wbs_dat_i[18] I
wbs_dat_i[19] I
wbs_dat_i[1] I
wbs_dat_i[20] I
wbs_dat_i[21] I
wbs_dat_i[22] I
wbs_dat_i[23] I
wbs_dat_i[24] I
wbs_dat_i[25] I
wbs_dat_i[26] I
wbs_dat_i[27] I
wbs_dat_i[28] I
wbs_dat_i[29] I
wbs_dat_i[2] I
wbs_dat_i[30] I
wbs_dat_i[31] I
wbs_dat_i[3] I
wbs_dat_i[4] I
wbs_dat_i[5] I
wbs_dat_i[6] I
wbs_dat_i[7] I
wbs_dat_i[8] I
wbs_dat_i[9] I
wbs_dat_o[0] O
wbs_dat_o[10] O
wbs_dat_o[11] O
wbs_dat_o[12] O
wbs_dat_o[13] O
wbs_dat_o[14] O
wbs_dat_o[15] O
wbs_dat_o[16] O
wbs_dat_o[17] O
wbs_dat_o[18] O
wbs_dat_o[19] O
wbs_dat_o[1] O
wbs_dat_o[20] O
wbs_dat_o[21] O
wbs_dat_o[22] O
wbs_dat_o[23] O
wbs_dat_o[24] O
wbs_dat_o[25] O
wbs_dat_o[26] O
wbs_dat_o[27] O
wbs_dat_o[28] O
wbs_dat_o[29] O
wbs_dat_o[2] O
wbs_dat_o[30] O
wbs_dat_o[31] O
wbs_dat_o[3] O
wbs_dat_o[4] O
wbs_dat_o[5] O
wbs_dat_o[6] O
wbs_dat_o[7] O
wbs_dat_o[8] O
wbs_dat_o[9] O
wbs_sel_i[0] I
wbs_sel_i[1] I
wbs_sel_i[2] I
wbs_sel_i[3] I
wbs_stb_i I
wbs_we_i I

*D_NET *3 0.0560925
*CONN
*P wb_clk_i I
*I *3754:A I *D sky130_fd_sc_hd__clkbuf_16
*I *398:DIODE I *D sky130_fd_sc_hd__diode_2
*CAP
1 wb_clk_i 0.0128509
2 *3754:A 5.99945e-05
3 *398:DIODE 0
4 *3:25 0.00498102
5 *3:15 0.0177719
6 *3754:A *125:15 0.000213852
7 *3754:A *141:15 0.0002234
8 *3:15 *169:22 0
9 *3:15 *191:24 0.00297066
10 *3:15 *202:16 0
11 *3:25 *3764:vpwrpc 0.00764986
12 *3:25 *3764:vpwrac 2.33124e-05
13 *3:25 *115:11 0.000832721
14 *3:25 *116:11 0.000733705
15 *3:25 *125:15 2.06178e-05
16 *3:25 *130:19 2.98245e-05
17 *3:25 *140:11 0.0015374
18 *3:25 *141:15 2.06178e-05
19 *3:25 *143:11 0.00120453
20 *3:25 *174:43 0.0049682
21 *3:25 *202:30 0
*RES
1 wb_clk_i *3:15 48.4861 
2 *3:15 *3:25 30.1848 
3 *3:25 *398:DIODE 13.8 
4 *3:25 *3754:A 16.6571 
*END

*D_NET *4 0.0003824
*CONN
*P wb_rst_i I
*I *3774:A I *D sky130_fd_sc_hd__buf_1
*I *545:DIODE I *D sky130_fd_sc_hd__diode_2
*CAP
1 wb_rst_i 0.000116496
2 *3774:A 7.26378e-05
3 *545:DIODE 0
4 *4:7 0.000189134
5 *4:7 wbs_ack_o 0
6 *4:7 *147:12 4.1331e-06
*RES
1 wb_rst_i *4:7 6.53571 
2 *4:7 *545:DIODE 9.3 
3 *4:7 *3774:A 10.5679 
*END

*D_NET *5 0.000873168
*CONN
*P wbs_ack_o O
*I *3824:X O *D sky130_fd_sc_hd__buf_12
*CAP
1 wbs_ack_o 0.000429499
2 *3824:X 0.000429499
3 wbs_ack_o *147:12 1.41706e-05
4 *4:7 wbs_ack_o 0
*RES
1 *3824:X wbs_ack_o 20.7821 
*END

*D_NET *7 0.00126886
*CONN
*P wbs_adr_i[10] I
*I *566:DIODE I *D sky130_fd_sc_hd__diode_2
*I *3785:A I *D sky130_fd_sc_hd__buf_4
*CAP
1 wbs_adr_i[10] 0.00026046
2 *566:DIODE 0.000249999
3 *3785:A 3.27275e-05
4 *7:9 0.000543186
5 *566:DIODE *527:DIODE 5.33005e-05
6 *566:DIODE *588:DIODE 0
7 *3785:A *149:21 2.59355e-05
8 *7:9 *8:5 0
9 *7:9 *37:9 0
10 *7:9 *149:21 0.000103253
*RES
1 wbs_adr_i[10] *7:9 3.71429 
2 *7:9 *3785:A 14.3357 
3 *7:9 *566:DIODE 16.9964 
*END

*D_NET *8 0.000723258
*CONN
*P wbs_adr_i[11] I
*I *588:DIODE I *D sky130_fd_sc_hd__diode_2
*I *3796:A I *D sky130_fd_sc_hd__buf_4
*CAP
1 wbs_adr_i[11] 0.000175845
2 *588:DIODE 0.000117764
3 *3796:A 2.3671e-05
4 *8:5 0.00031728
5 *3796:A *158:10 5.52302e-05
6 *8:5 *149:21 3.34672e-05
7 *8:5 *158:16 0
8 *8:5 *169:22 0
9 *566:DIODE *588:DIODE 0
10 *7:9 *8:5 0
*RES
1 wbs_adr_i[11] *8:5 2.64286 
2 *8:5 *3796:A 14.3357 
3 *8:5 *588:DIODE 15.7464 
*END

*D_NET *28 0.000692881
*CONN
*P wbs_adr_i[2] I
*I *3807:A I *D sky130_fd_sc_hd__buf_4
*I *609:DIODE I *D sky130_fd_sc_hd__diode_2
*CAP
1 wbs_adr_i[2] 0.000250028
2 *3807:A 9.64125e-05
3 *609:DIODE 0
4 *28:5 0.000346441
5 *3807:A *31:5 0
*RES
1 wbs_adr_i[2] *28:5 4.46429 
2 *28:5 *609:DIODE 13.8 
3 *28:5 *3807:A 15.3714 
*END

*D_NET *31 0.00107711
*CONN
*P wbs_adr_i[3] I
*I *613:DIODE I *D sky130_fd_sc_hd__diode_2
*I *3818:A I *D sky130_fd_sc_hd__buf_4
*CAP
1 wbs_adr_i[3] 0.000236807
2 *613:DIODE 0.000113478
3 *3818:A 2.54922e-05
4 *31:5 0.000375777
5 *3818:A *180:10 5.52302e-05
6 *31:5 *610:DIODE 1.21859e-05
7 *31:5 *32:7 0
8 *31:5 *180:10 5.53052e-05
9 *31:5 *193:20 0.000202835
10 *3807:A *31:5 0
*RES
1 wbs_adr_i[3] *31:5 5.375 
2 *31:5 *3818:A 14.3357 
3 *31:5 *613:DIODE 15.4429 
*END

*D_NET *32 0.000429004
*CONN
*P wbs_adr_i[4] I
*I *3820:A I *D sky130_fd_sc_hd__buf_4
*I *615:DIODE I *D sky130_fd_sc_hd__diode_2
*CAP
1 wbs_adr_i[4] 0.000125664
2 *3820:A 3.82418e-05
3 *615:DIODE 5.05962e-05
4 *32:7 0.000214502
5 *32:7 *33:5 0
6 *32:7 *193:20 0
7 *31:5 *32:7 0
*RES
1 wbs_adr_i[4] *32:7 6.53571 
2 *32:7 *615:DIODE 9.83571 
3 *32:7 *3820:A 10.0321 
*END

*D_NET *33 0.00088828
*CONN
*P wbs_adr_i[5] I
*I *3821:A I *D sky130_fd_sc_hd__buf_4
*I *617:DIODE I *D sky130_fd_sc_hd__diode_2
*CAP
1 wbs_adr_i[5] 0.000286691
2 *3821:A 9.94703e-05
3 *617:DIODE 4.74837e-05
4 *33:5 0.000433645
5 *3821:A *180:10 0
6 *33:5 *34:9 0
7 *33:5 *180:10 0
8 *33:5 *202:16 2.09897e-05
9 *32:7 *33:5 0
*RES
1 wbs_adr_i[5] *33:5 4.46429 
2 *33:5 *617:DIODE 14.3357 
3 *33:5 *3821:A 15.3714 
*END

*D_NET *34 0.00112159
*CONN
*P wbs_adr_i[6] I
*I *619:DIODE I *D sky130_fd_sc_hd__diode_2
*I *3822:A I *D sky130_fd_sc_hd__buf_4
*CAP
1 wbs_adr_i[6] 0.000204698
2 *619:DIODE 0.000256367
3 *3822:A 4.05636e-05
4 *34:9 0.000501628
5 *619:DIODE *620:DIODE 0
6 *619:DIODE *621:DIODE 0
7 *619:DIODE *213:8 1.92905e-05
8 *3822:A *224:8 9.90431e-05
9 *34:9 *35:9 0
10 *33:5 *34:9 0
*RES
1 wbs_adr_i[6] *34:9 3.30357 
2 *34:9 *3822:A 14.7464 
3 *34:9 *619:DIODE 17.7107 
*END

*D_NET *35 0.001253
*CONN
*P wbs_adr_i[7] I
*I *621:DIODE I *D sky130_fd_sc_hd__diode_2
*I *3823:A I *D sky130_fd_sc_hd__buf_4
*CAP
1 wbs_adr_i[7] 0.000169375
2 *621:DIODE 0.000211533
3 *3823:A 3.17028e-05
4 *35:9 0.000412611
5 *621:DIODE *620:DIODE 0.000138562
6 *621:DIODE *224:12 3.04117e-05
7 *3823:A *224:8 5.33005e-05
8 *3823:A *235:8 9.74665e-05
9 *35:9 *224:12 0.00010804
10 *619:DIODE *621:DIODE 0
11 *34:9 *35:9 0
*RES
1 wbs_adr_i[7] *35:9 3.30357 
2 *35:9 *3823:A 14.7464 
3 *35:9 *621:DIODE 17.1036 
*END

*D_NET *36 0.00100779
*CONN
*P wbs_adr_i[8] I
*I *525:DIODE I *D sky130_fd_sc_hd__diode_2
*I *3775:A I *D sky130_fd_sc_hd__buf_4
*CAP
1 wbs_adr_i[8] 0.000212096
2 *525:DIODE 0.000104531
3 *3775:A 0
4 *36:13 0.000316627
5 *525:DIODE *527:DIODE 4.68817e-05
6 *525:DIODE *37:9 1.89507e-06
7 *525:DIODE *148:14 7.45864e-05
8 *36:13 *622:DIODE 2.50833e-05
9 *36:13 *37:9 0
10 *36:13 *148:14 7.85388e-05
11 *36:13 *235:12 0.00014755
*RES
1 wbs_adr_i[8] *36:13 8.75 
2 *36:13 *3775:A 9.3 
3 *36:13 *525:DIODE 20.7821 
*END

*D_NET *37 0.00139564
*CONN
*P wbs_adr_i[9] I
*I *527:DIODE I *D sky130_fd_sc_hd__diode_2
*I *3776:A I *D sky130_fd_sc_hd__buf_4
*CAP
1 wbs_adr_i[9] 0.000204706
2 *527:DIODE 0.000351617
3 *3776:A 4.0472e-05
4 *37:9 0.000596795
5 *527:DIODE *148:14 9.33978e-07
6 *3776:A *149:8 9.90367e-05
7 *525:DIODE *527:DIODE 4.68817e-05
8 *525:DIODE *37:9 1.89507e-06
9 *566:DIODE *527:DIODE 5.33005e-05
10 *7:9 *37:9 0
11 *36:13 *37:9 0
*RES
1 wbs_adr_i[9] *37:9 3.30357 
2 *37:9 *3776:A 14.7464 
3 *37:9 *527:DIODE 18.3357 
*END

*D_NET *38 0.000681833
*CONN
*P wbs_cyc_i I
*I *3777:A I *D sky130_fd_sc_hd__clkbuf_2
*I *529:DIODE I *D sky130_fd_sc_hd__diode_2
*CAP
1 wbs_cyc_i 0.000167894
2 *3777:A 4.07704e-05
3 *529:DIODE 5.51189e-05
4 *38:7 0.000263783
5 *529:DIODE *530:DIODE 5.52238e-05
6 *3777:A *530:DIODE 9.90431e-05
7 *38:7 *39:9 0
*RES
1 wbs_cyc_i *38:7 6.83929 
2 *38:7 *529:DIODE 10.2464 
3 *38:7 *3777:A 10.2464 
*END

*D_NET *39 0.00075004
*CONN
*P wbs_dat_i[0] I
*I *3778:A I *D sky130_fd_sc_hd__clkbuf_4
*I *531:DIODE I *D sky130_fd_sc_hd__diode_2
*CAP
1 wbs_dat_i[0] 0.00023437
2 *3778:A 0
3 *531:DIODE 0.00014065
4 *39:9 0.00037502
5 *531:DIODE *554:DIODE 0
6 *531:DIODE *150:19 0
7 *39:9 *50:5 0
8 *38:7 *39:9 0
*RES
1 wbs_dat_i[0] *39:9 7.78571 
2 *39:9 *531:DIODE 20.55 
3 *39:9 *3778:A 9.3 
*END

*D_NET *40 0.00148937
*CONN
*P wbs_dat_i[10] I
*I *3779:A I *D sky130_fd_sc_hd__clkbuf_4
*I *533:DIODE I *D sky130_fd_sc_hd__diode_2
*CAP
1 wbs_dat_i[10] 0.000328907
2 *3779:A 5.76812e-05
3 *533:DIODE 0.000150954
4 *40:9 0.000537542
5 *533:DIODE *598:DIODE 0
6 *533:DIODE *41:9 2.95642e-05
7 *533:DIODE *185:10 0
8 *3779:A *41:9 0.000142856
9 *40:9 *596:DIODE 1.89507e-06
10 *40:9 *3812:A 8.76257e-05
11 *40:9 *41:9 5.33005e-05
12 *40:9 *70:13 9.90431e-05
*RES
1 wbs_dat_i[10] *40:9 9.83929 
2 *40:9 *533:DIODE 20.55 
3 *40:9 *3779:A 10.6571 
*END

*D_NET *41 0.00140564
*CONN
*P wbs_dat_i[11] I
*I *3780:A I *D sky130_fd_sc_hd__buf_2
*I *535:DIODE I *D sky130_fd_sc_hd__diode_2
*CAP
1 wbs_dat_i[11] 0.000296541
2 *3780:A 2.09866e-05
3 *535:DIODE 0.000104481
4 *41:9 0.000422009
5 *535:DIODE *537:DIODE 1.83281e-05
6 *535:DIODE *152:12 3.36408e-05
7 *535:DIODE *185:10 3.36408e-05
8 *3780:A *42:9 8.67797e-05
9 *3780:A *152:12 3.42509e-05
10 *41:9 *42:9 5.49544e-05
11 *41:9 *152:12 3.69047e-06
12 *41:9 *185:10 7.06193e-05
13 *533:DIODE *41:9 2.95642e-05
14 *3779:A *41:9 0.000142856
15 *40:9 *41:9 5.33005e-05
*RES
1 wbs_dat_i[11] *41:9 10.1429 
2 *41:9 *535:DIODE 20.2464 
3 *41:9 *3780:A 10.2464 
*END

*D_NET *42 0.0015141
*CONN
*P wbs_dat_i[12] I
*I *3781:A I *D sky130_fd_sc_hd__buf_2
*I *537:DIODE I *D sky130_fd_sc_hd__diode_2
*CAP
1 wbs_dat_i[12] 0.000262915
2 *3781:A 0.000129258
3 *537:DIODE 0.000220408
4 *42:9 0.000612582
5 *537:DIODE *152:12 7.49952e-05
6 *537:DIODE *198:27 2.59355e-05
7 *3781:A *153:6 2.79421e-05
8 *535:DIODE *537:DIODE 1.83281e-05
9 *3780:A *42:9 8.67797e-05
10 *41:9 *42:9 5.49544e-05
*RES
1 wbs_dat_i[12] *42:9 8.60714 
2 *42:9 *537:DIODE 21.0857 
3 *42:9 *3781:A 11.0857 
*END

*D_NET *43 0.00141891
*CONN
*P wbs_dat_i[13] I
*I *3782:A I *D sky130_fd_sc_hd__buf_2
*I *539:DIODE I *D sky130_fd_sc_hd__diode_2
*CAP
1 wbs_dat_i[13] 0.000424289
2 *3782:A 0
3 *539:DIODE 0.000106614
4 *43:17 0.000530903
5 *539:DIODE *541:DIODE 0.00014072
6 *539:DIODE *155:10 0
7 *43:17 *541:DIODE 9.21418e-06
8 *43:17 *3783:A 5.52302e-05
9 *43:17 *44:5 8.16747e-05
10 *43:17 *153:6 6.05161e-06
11 *43:17 *153:21 6.42095e-05
12 *43:17 *221:10 0
*RES
1 wbs_dat_i[13] *43:17 11.8571 
2 *43:17 *539:DIODE 20.2464 
3 *43:17 *3782:A 9.3 
*END

*D_NET *44 0.00153583
*CONN
*P wbs_dat_i[14] I
*I *541:DIODE I *D sky130_fd_sc_hd__diode_2
*I *3783:A I *D sky130_fd_sc_hd__buf_2
*CAP
1 wbs_dat_i[14] 0.000134975
2 *541:DIODE 0.00018506
3 *3783:A 0.000108263
4 *44:5 0.000428298
5 *541:DIODE *536:DIODE 8.44271e-06
6 *541:DIODE *538:DIODE 7.5779e-05
7 *541:DIODE *155:10 0
8 *541:DIODE *198:27 0.000142856
9 *3783:A *153:21 6.62783e-05
10 *3783:A *155:10 9.90367e-05
11 *44:5 *45:9 0
12 *539:DIODE *541:DIODE 0.00014072
13 *43:17 *541:DIODE 9.21418e-06
14 *43:17 *3783:A 5.52302e-05
15 *43:17 *44:5 8.16747e-05
*RES
1 wbs_dat_i[14] *44:5 2.33929 
2 *44:5 *3783:A 16.4071 
3 *44:5 *541:DIODE 17.7107 
*END

*D_NET *45 0.00111266
*CONN
*P wbs_dat_i[15] I
*I *3784:A I *D sky130_fd_sc_hd__buf_2
*I *543:DIODE I *D sky130_fd_sc_hd__diode_2
*CAP
1 wbs_dat_i[15] 0.000173373
2 *3784:A 1.17005e-05
3 *543:DIODE 8.26085e-05
4 *45:9 0.000267682
5 *543:DIODE *156:12 6.32246e-05
6 *543:DIODE *221:10 0.00014072
7 *3784:A *153:21 2.89114e-05
8 *3784:A *156:12 2.44318e-05
9 *45:9 *153:21 4.58194e-05
10 *45:9 *155:10 5.20298e-05
11 *45:9 *156:12 2.78611e-05
12 *45:9 *221:10 0.0001943
13 *44:5 *45:9 0
*RES
1 wbs_dat_i[15] *45:9 8.08929 
2 *45:9 *543:DIODE 20.2464 
3 *45:9 *3784:A 9.83571 
*END

*D_NET *46 0.00088561
*CONN
*P wbs_dat_i[16] I
*I *546:DIODE I *D sky130_fd_sc_hd__diode_2
*I *3786:A I *D sky130_fd_sc_hd__clkbuf_4
*CAP
1 wbs_dat_i[16] 0.000160854
2 *546:DIODE 0.000116257
3 *3786:A 5.23568e-05
4 *46:5 0.000329468
5 *546:DIODE *157:12 0.000156007
6 *546:DIODE *159:8 0
7 *3786:A *153:21 3.67257e-05
8 *46:5 *47:9 0
9 *46:5 *157:12 3.39401e-05
10 *46:5 *221:10 0
*RES
1 wbs_dat_i[16] *46:5 2.33929 
2 *46:5 *3786:A 14.7464 
3 *46:5 *546:DIODE 16.05 
*END

*D_NET *47 0.000832486
*CONN
*P wbs_dat_i[17] I
*I *548:DIODE I *D sky130_fd_sc_hd__diode_2
*I *3787:A I *D sky130_fd_sc_hd__clkbuf_4
*CAP
1 wbs_dat_i[17] 0.000226794
2 *548:DIODE 0.000109765
3 *3787:A 0
4 *47:9 0.000336559
5 *548:DIODE *48:9 5.49544e-05
6 *548:DIODE *153:21 4.7812e-05
7 *548:DIODE *160:10 2.2351e-05
8 *47:9 *48:9 0
9 *47:9 *153:21 3.42509e-05
10 *46:5 *47:9 0
*RES
1 wbs_dat_i[17] *47:9 7.78571 
2 *47:9 *3787:A 9.3 
3 *47:9 *548:DIODE 11.4786 
*END

*D_NET *48 0.00121224
*CONN
*P wbs_dat_i[18] I
*I *3788:A I *D sky130_fd_sc_hd__clkbuf_4
*I *550:DIODE I *D sky130_fd_sc_hd__diode_2
*CAP
1 wbs_dat_i[18] 0.000273696
2 *3788:A 2.42963e-05
3 *550:DIODE 9.32574e-05
4 *48:9 0.00039125
5 *550:DIODE *552:DIODE 0.00014072
6 *550:DIODE *160:10 2.8824e-05
7 *3788:A *3789:A 1.24368e-05
8 *3788:A *153:21 2.59355e-05
9 *48:9 *552:DIODE 0
10 *48:9 *49:5 0
11 *48:9 *153:21 6.8529e-05
12 *48:9 *160:10 9.83442e-05
13 *548:DIODE *48:9 5.49544e-05
14 *47:9 *48:9 0
*RES
1 wbs_dat_i[18] *48:9 9.32143 
2 *48:9 *550:DIODE 20.2464 
3 *48:9 *3788:A 9.83571 
*END

*D_NET *49 0.00154197
*CONN
*P wbs_dat_i[19] I
*I *552:DIODE I *D sky130_fd_sc_hd__diode_2
*I *3789:A I *D sky130_fd_sc_hd__clkbuf_4
*CAP
1 wbs_dat_i[19] 0.000152132
2 *552:DIODE 0.000254588
3 *3789:A 0.000158538
4 *49:5 0.000565258
5 *552:DIODE *51:11 0
6 *552:DIODE *161:12 0
7 *552:DIODE *198:37 0.000142856
8 *3789:A *153:21 5.91367e-05
9 *3789:A *161:12 5.62995e-05
10 *49:5 *51:11 0
11 *550:DIODE *552:DIODE 0.00014072
12 *3788:A *3789:A 1.24368e-05
13 *48:9 *552:DIODE 0
14 *48:9 *49:5 0
*RES
1 wbs_dat_i[19] *49:5 2.03571 
2 *49:5 *3789:A 16.8179 
3 *49:5 *552:DIODE 17.7107 
*END

*D_NET *50 0.000764178
*CONN
*P wbs_dat_i[1] I
*I *554:DIODE I *D sky130_fd_sc_hd__diode_2
*I *3790:A I *D sky130_fd_sc_hd__clkbuf_4
*CAP
1 wbs_dat_i[1] 0.000169151
2 *554:DIODE 0.000127986
3 *3790:A 5.60254e-05
4 *50:5 0.000353163
5 *554:DIODE *555:DIODE 0
6 *554:DIODE *578:DIODE 0
7 *554:DIODE *151:10 3.36408e-05
8 *3790:A *151:10 2.42122e-05
9 *50:5 *61:5 0
10 *531:DIODE *554:DIODE 0
11 *39:9 *50:5 0
*RES
1 wbs_dat_i[1] *50:5 2.33929 
2 *50:5 *3790:A 14.7464 
3 *50:5 *554:DIODE 16.05 
*END

*D_NET *51 0.0010942
*CONN
*P wbs_dat_i[20] I
*I *3791:A I *D sky130_fd_sc_hd__buf_4
*I *556:DIODE I *D sky130_fd_sc_hd__diode_2
*CAP
1 wbs_dat_i[20] 0.000277434
2 *3791:A 4.32964e-05
3 *556:DIODE 0.000104943
4 *51:11 0.000425673
5 *556:DIODE *161:12 0
6 *556:DIODE *162:10 0.00014072
7 *3791:A *153:21 4.87953e-05
8 *51:11 *52:9 0
9 *51:11 *153:21 5.33334e-05
10 *51:11 *161:12 0
11 *552:DIODE *51:11 0
12 *49:5 *51:11 0
*RES
1 wbs_dat_i[20] *51:11 8.625 
2 *51:11 *556:DIODE 20.2464 
3 *51:11 *3791:A 10.2464 
*END

*D_NET *52 0.00121084
*CONN
*P wbs_dat_i[21] I
*I *558:DIODE I *D sky130_fd_sc_hd__diode_2
*I *3792:A I *D sky130_fd_sc_hd__buf_4
*CAP
1 wbs_dat_i[21] 0.000271932
2 *558:DIODE 5.96693e-05
3 *3792:A 0
4 *52:9 0.000331601
5 *558:DIODE *53:11 6.98388e-05
6 *558:DIODE *153:21 0.000117121
7 *558:DIODE *164:10 5.71472e-05
8 *558:DIODE *165:10 9.90367e-05
9 *52:9 *53:11 0
10 *52:9 *153:21 4.59075e-05
11 *52:9 *162:10 1.38167e-05
12 *52:9 *164:10 0.000144773
13 *51:11 *52:9 0
*RES
1 wbs_dat_i[21] *52:9 9.32143 
2 *52:9 *3792:A 9.3 
3 *52:9 *558:DIODE 11.8893 
*END

*D_NET *53 0.00150839
*CONN
*P wbs_dat_i[22] I
*I *3793:A I *D sky130_fd_sc_hd__buf_4
*I *560:DIODE I *D sky130_fd_sc_hd__diode_2
*CAP
1 wbs_dat_i[22] 0.000461752
2 *3793:A 0
3 *560:DIODE 0.000154538
4 *53:11 0.00061629
5 *560:DIODE *562:DIODE 0
6 *560:DIODE *54:9 6.87711e-05
7 *560:DIODE *165:10 0
8 *53:11 *54:9 2.94004e-05
9 *53:11 *153:21 6.8377e-06
10 *53:11 *165:10 0.00010096
11 *558:DIODE *53:11 6.98388e-05
12 *52:9 *53:11 0
*RES
1 wbs_dat_i[22] *53:11 11.0893 
2 *53:11 *560:DIODE 20.7821 
3 *53:11 *3793:A 9.3 
*END

*D_NET *54 0.00153746
*CONN
*P wbs_dat_i[23] I
*I *3794:A I *D sky130_fd_sc_hd__buf_4
*I *562:DIODE I *D sky130_fd_sc_hd__diode_2
*CAP
1 wbs_dat_i[23] 0.000297776
2 *3794:A 3.71973e-05
3 *562:DIODE 0.000110294
4 *54:9 0.000445267
5 *562:DIODE *166:10 3.10309e-05
6 *3794:A *55:15 5.04841e-06
7 *3794:A *153:21 9.90431e-05
8 *3794:A *166:10 4.88637e-05
9 *54:9 *55:15 0
10 *54:9 *153:21 0.000311128
11 *54:9 *165:10 2.22674e-05
12 *54:9 *166:10 3.13687e-05
13 *560:DIODE *562:DIODE 0
14 *560:DIODE *54:9 6.87711e-05
15 *53:11 *54:9 2.94004e-05
*RES
1 wbs_dat_i[23] *54:9 10.4464 
2 *54:9 *562:DIODE 19.9429 
3 *54:9 *3794:A 10.675 
*END

*D_NET *55 0.00151344
*CONN
*P wbs_dat_i[24] I
*I *3795:A I *D sky130_fd_sc_hd__buf_4
*I *564:DIODE I *D sky130_fd_sc_hd__diode_2
*CAP
1 wbs_dat_i[24] 0.000392186
2 *3795:A 1.06454e-05
3 *564:DIODE 0.000117028
4 *55:15 0.00051986
5 *564:DIODE *563:DIODE 6.32246e-05
6 *564:DIODE *166:10 0
7 *3795:A *153:21 2.89114e-05
8 *3795:A *167:6 4.38128e-05
9 *55:15 *56:13 0
10 *55:15 *153:21 8.69863e-05
11 *55:15 *166:10 0.000144773
12 *55:15 *167:6 0.00010096
13 *3794:A *55:15 5.04841e-06
14 *54:9 *55:15 0
*RES
1 wbs_dat_i[24] *55:15 10.9286 
2 *55:15 *564:DIODE 20.2464 
3 *55:15 *3795:A 9.83571 
*END

*D_NET *56 0.00178508
*CONN
*P wbs_dat_i[25] I
*I *568:DIODE I *D sky130_fd_sc_hd__diode_2
*I *3797:A I *D sky130_fd_sc_hd__buf_4
*CAP
1 wbs_dat_i[25] 0.000482092
2 *568:DIODE 0.00011317
3 *3797:A 0
4 *56:13 0.000595263
5 *568:DIODE *153:21 0.000131297
6 *568:DIODE *170:14 0.000136958
7 *56:13 *57:5 0
8 *56:13 *153:21 9.22103e-06
9 *56:13 *167:6 0.000144773
10 *56:13 *167:33 0.000172309
11 *55:15 *56:13 0
*RES
1 wbs_dat_i[25] *56:13 11.2143 
2 *56:13 *3797:A 9.3 
3 *56:13 *568:DIODE 11.8893 
*END

*D_NET *57 0.0010417
*CONN
*P wbs_dat_i[26] I
*I *3798:A I *D sky130_fd_sc_hd__buf_4
*I *570:DIODE I *D sky130_fd_sc_hd__diode_2
*CAP
1 wbs_dat_i[26] 0.000260156
2 *3798:A 6.29344e-05
3 *570:DIODE 0
4 *57:5 0.000323091
5 *3798:A *156:25 5.33005e-05
6 *3798:A *166:10 0
7 *3798:A *168:14 7.72906e-05
8 *3798:A *200:33 5.33005e-05
9 *57:5 *563:DIODE 7.44021e-05
10 *57:5 *58:17 0
11 *57:5 *167:33 1.95625e-05
12 *57:5 *168:14 0.000117662
13 *56:13 *57:5 0
*RES
1 wbs_dat_i[26] *57:5 4.46429 
2 *57:5 *570:DIODE 13.8 
3 *57:5 *3798:A 15.3714 
*END

*D_NET *58 0.00161615
*CONN
*P wbs_dat_i[27] I
*I *572:DIODE I *D sky130_fd_sc_hd__diode_2
*I *3799:A I *D sky130_fd_sc_hd__buf_4
*CAP
1 wbs_dat_i[27] 0.000411525
2 *572:DIODE 0.000127401
3 *3799:A 0
4 *58:17 0.000538927
5 *572:DIODE *574:DIODE 5.87153e-05
6 *572:DIODE *59:13 8.59075e-05
7 *572:DIODE *153:21 4.96113e-05
8 *572:DIODE *194:24 5.87153e-05
9 *58:17 *59:13 0.000130152
10 *58:17 *153:21 7.02611e-05
11 *58:17 *170:14 8.28647e-05
12 *58:17 *194:24 2.06655e-06
13 *57:5 *58:17 0
*RES
1 wbs_dat_i[27] *58:17 11.8571 
2 *58:17 *3799:A 9.3 
3 *58:17 *572:DIODE 21.1929 
*END

*D_NET *59 0.0014526
*CONN
*P wbs_dat_i[28] I
*I *3800:A I *D sky130_fd_sc_hd__buf_4
*I *574:DIODE I *D sky130_fd_sc_hd__diode_2
*CAP
1 wbs_dat_i[28] 0.000228543
2 *3800:A 2.53753e-05
3 *574:DIODE 0.000122046
4 *59:13 0.000375964
5 *574:DIODE *172:10 2.65008e-05
6 *3800:A *60:13 5.49544e-05
7 *3800:A *172:10 9.83442e-05
8 *59:13 *153:21 1.10868e-05
9 *59:13 *170:14 8.6229e-06
10 *59:13 *172:10 5.49489e-05
11 *59:13 *194:24 0.000171443
12 *572:DIODE *574:DIODE 5.87153e-05
13 *572:DIODE *59:13 8.59075e-05
14 *58:17 *59:13 0.000130152
*RES
1 wbs_dat_i[28] *59:13 9.57143 
2 *59:13 *574:DIODE 20.2464 
3 *59:13 *3800:A 10.2464 
*END

*D_NET *60 0.00124257
*CONN
*P wbs_dat_i[29] I
*I *3801:A I *D sky130_fd_sc_hd__buf_4
*I *576:DIODE I *D sky130_fd_sc_hd__diode_2
*CAP
1 wbs_dat_i[29] 0.000288489
2 *3801:A 2.19008e-05
3 *576:DIODE 0.000126227
4 *60:13 0.000436617
5 *576:DIODE *172:10 2.65008e-05
6 *576:DIODE *173:12 3.33467e-05
7 *3801:A *62:13 5.52302e-05
8 *3801:A *153:21 5.33433e-05
9 *3801:A *173:12 1.54142e-05
10 *60:13 *62:13 0
11 *60:13 *153:21 6.49445e-05
12 *60:13 *172:10 2.36643e-05
13 *60:13 *173:12 4.19409e-05
14 *60:13 *194:24 0
15 *3800:A *60:13 5.49544e-05
*RES
1 wbs_dat_i[29] *60:13 9.57143 
2 *60:13 *576:DIODE 20.2464 
3 *60:13 *3801:A 10.2464 
*END

*D_NET *61 0.000842033
*CONN
*P wbs_dat_i[2] I
*I *578:DIODE I *D sky130_fd_sc_hd__diode_2
*I *3802:A I *D sky130_fd_sc_hd__clkbuf_4
*CAP
1 wbs_dat_i[2] 0.000175554
2 *578:DIODE 0.000118135
3 *3802:A 6.6906e-05
4 *61:5 0.000360595
5 *578:DIODE *555:DIODE 9.97008e-05
6 *578:DIODE *584:DIODE 0
7 *578:DIODE *163:14 2.11419e-05
8 *61:5 *64:5 0
9 *554:DIODE *578:DIODE 0
10 *50:5 *61:5 0
*RES
1 wbs_dat_i[2] *61:5 2.33929 
2 *61:5 *3802:A 14.7464 
3 *61:5 *578:DIODE 16.05 
*END

*D_NET *62 0.00157647
*CONN
*P wbs_dat_i[30] I
*I *580:DIODE I *D sky130_fd_sc_hd__diode_2
*I *3803:A I *D sky130_fd_sc_hd__buf_4
*CAP
1 wbs_dat_i[30] 0.000325563
2 *580:DIODE 8.47442e-05
3 *3803:A 0
4 *62:13 0.000410307
5 *580:DIODE wbs_dat_o[0] 5.52302e-05
6 *580:DIODE *174:10 0.000268396
7 *580:DIODE *176:12 4.72818e-05
8 *62:13 *153:21 4.22918e-05
9 *62:13 *173:12 0.000110738
10 *62:13 *174:10 0.000137983
11 *62:13 *226:27 3.87073e-05
12 *3801:A *62:13 5.52302e-05
13 *60:13 *62:13 0
*RES
1 wbs_dat_i[30] *62:13 10.3929 
2 *62:13 *3803:A 9.3 
3 *62:13 *580:DIODE 11.8893 
*END

*D_NET *63 0.00174565
*CONN
*P wbs_dat_i[31] I
*I *3804:A I *D sky130_fd_sc_hd__buf_4
*I *582:DIODE I *D sky130_fd_sc_hd__diode_2
*CAP
1 wbs_dat_i[31] 0.000393555
2 *3804:A 9.42368e-05
3 *582:DIODE 3.92213e-05
4 *63:9 0.000527013
5 *582:DIODE *198:37 5.52302e-05
6 *3804:A *170:33 0.000137983
7 *3804:A *200:33 0.000137179
8 *3804:A *226:27 6.81294e-05
9 *63:9 wbs_dat_o[0] 0
10 *63:9 *226:27 0.000293101
*RES
1 wbs_dat_i[31] *63:9 5.53571 
2 *63:9 *582:DIODE 14.3357 
3 *63:9 *3804:A 16.1929 
*END

*D_NET *64 0.000780422
*CONN
*P wbs_dat_i[3] I
*I *584:DIODE I *D sky130_fd_sc_hd__diode_2
*I *3805:A I *D sky130_fd_sc_hd__clkbuf_4
*CAP
1 wbs_dat_i[3] 0.000174296
2 *584:DIODE 0.000148179
3 *3805:A 5.40868e-05
4 *64:5 0.000376562
5 *584:DIODE *586:DIODE 0
6 *3805:A *175:6 2.72967e-05
7 *64:5 *65:5 0
8 *578:DIODE *584:DIODE 0
9 *61:5 *64:5 0
*RES
1 wbs_dat_i[3] *64:5 2.33929 
2 *64:5 *3805:A 14.7464 
3 *64:5 *584:DIODE 16.05 
*END

*D_NET *65 0.00136588
*CONN
*P wbs_dat_i[4] I
*I *586:DIODE I *D sky130_fd_sc_hd__diode_2
*I *3806:A I *D sky130_fd_sc_hd__clkbuf_4
*CAP
1 wbs_dat_i[4] 0.000173039
2 *586:DIODE 0.000230581
3 *3806:A 0.000157437
4 *65:5 0.000561057
5 *586:DIODE *175:12 4.70162e-05
6 *586:DIODE *178:10 4.60232e-06
7 *586:DIODE *198:27 0.000137983
8 *3806:A *178:10 5.41609e-05
9 *65:5 *66:11 0
10 *584:DIODE *586:DIODE 0
11 *64:5 *65:5 0
*RES
1 wbs_dat_i[4] *65:5 2.33929 
2 *65:5 *3806:A 16.3893 
3 *65:5 *586:DIODE 17.7107 
*END

*D_NET *66 0.00101939
*CONN
*P wbs_dat_i[5] I
*I *3808:A I *D sky130_fd_sc_hd__clkbuf_4
*I *590:DIODE I *D sky130_fd_sc_hd__diode_2
*CAP
1 wbs_dat_i[5] 0.000279298
2 *3808:A 6.6584e-05
3 *590:DIODE 0.000110612
4 *66:11 0.000456493
5 *590:DIODE *592:DIODE 1.83281e-05
6 *590:DIODE *178:10 0
7 *590:DIODE *179:12 3.52194e-05
8 *3808:A *3809:A 1.24368e-05
9 *3808:A *179:12 3.67257e-05
10 *66:11 *67:5 0
11 *66:11 *179:12 3.69047e-06
12 *65:5 *66:11 0
*RES
1 wbs_dat_i[5] *66:11 8.625 
2 *66:11 *590:DIODE 20.2464 
3 *66:11 *3808:A 10.6571 
*END

*D_NET *67 0.00140807
*CONN
*P wbs_dat_i[6] I
*I *592:DIODE I *D sky130_fd_sc_hd__diode_2
*I *3809:A I *D sky130_fd_sc_hd__clkbuf_4
*CAP
1 wbs_dat_i[6] 0.000150171
2 *592:DIODE 0.000260186
3 *3809:A 0.00018397
4 *67:5 0.000594328
5 *592:DIODE *179:12 7.5779e-05
6 *592:DIODE *181:10 0
7 *592:DIODE *198:27 7.72745e-05
8 *3809:A *181:10 3.55937e-05
9 *67:5 *68:11 0
10 *590:DIODE *592:DIODE 1.83281e-05
11 *3808:A *3809:A 1.24368e-05
12 *66:11 *67:5 0
*RES
1 wbs_dat_i[6] *67:5 2.03571 
2 *67:5 *3809:A 16.8179 
3 *67:5 *592:DIODE 17.7107 
*END

*D_NET *68 0.00112601
*CONN
*P wbs_dat_i[7] I
*I *594:DIODE I *D sky130_fd_sc_hd__diode_2
*I *3810:A I *D sky130_fd_sc_hd__clkbuf_4
*CAP
1 wbs_dat_i[7] 0.000355115
2 *594:DIODE 9.5603e-05
3 *3810:A 0
4 *68:11 0.000450718
5 *594:DIODE *69:11 0.000211243
6 *68:11 *69:11 1.33343e-05
7 *67:5 *68:11 0
*RES
1 wbs_dat_i[7] *68:11 9.85714 
2 *68:11 *3810:A 9.3 
3 *68:11 *594:DIODE 11.4786 
*END

*D_NET *69 0.00155384
*CONN
*P wbs_dat_i[8] I
*I *3811:A I *D sky130_fd_sc_hd__clkbuf_4
*I *596:DIODE I *D sky130_fd_sc_hd__diode_2
*CAP
1 wbs_dat_i[8] 0.000418582
2 *3811:A 2.14871e-05
3 *596:DIODE 0.000154568
4 *69:11 0.000594636
5 *596:DIODE *70:13 2.95642e-05
6 *596:DIODE *184:8 0
7 *3811:A *70:13 5.52302e-05
8 *69:11 *70:13 5.33005e-05
9 *594:DIODE *69:11 0.000211243
10 *40:9 *596:DIODE 1.89507e-06
11 *68:11 *69:11 1.33343e-05
*RES
1 wbs_dat_i[8] *69:11 10.7857 
2 *69:11 *596:DIODE 20.55 
3 *69:11 *3811:A 9.83571 
*END

*D_NET *70 0.00157219
*CONN
*P wbs_dat_i[9] I
*I *3812:A I *D sky130_fd_sc_hd__clkbuf_4
*I *598:DIODE I *D sky130_fd_sc_hd__diode_2
*CAP
1 wbs_dat_i[9] 0.000439272
2 *3812:A 3.41891e-05
3 *598:DIODE 0.000111602
4 *70:13 0.000585062
5 *598:DIODE *184:8 7.72966e-05
6 *533:DIODE *598:DIODE 0
7 *596:DIODE *70:13 2.95642e-05
8 *3811:A *70:13 5.52302e-05
9 *40:9 *3812:A 8.76257e-05
10 *40:9 *70:13 9.90431e-05
11 *69:11 *70:13 5.33005e-05
*RES
1 wbs_dat_i[9] *70:13 10.8036 
2 *70:13 *598:DIODE 20.2464 
3 *70:13 *3812:A 10.2464 
*END

*D_NET *71 0.000941168
*CONN
*P wbs_dat_o[0] O
*I *3825:X O *D sky130_fd_sc_hd__buf_12
*CAP
1 wbs_dat_o[0] 0.000284272
2 *3825:X 0.000284272
3 wbs_dat_o[0] wbs_dat_o[1] 0
4 wbs_dat_o[0] *153:21 1.21289e-05
5 wbs_dat_o[0] *170:33 9.6087e-05
6 wbs_dat_o[0] *174:10 2.44318e-05
7 wbs_dat_o[0] *176:12 0.000184745
8 *580:DIODE wbs_dat_o[0] 5.52302e-05
9 *63:9 wbs_dat_o[0] 0
*RES
1 *3825:X wbs_dat_o[0] 19.1393 
*END

*D_NET *72 0.00379171
*CONN
*P wbs_dat_o[10] O
*I *3826:X O *D sky130_fd_sc_hd__buf_12
*CAP
1 wbs_dat_o[10] 0.00113263
2 *3826:X 0.00113263
3 wbs_dat_o[10] wbs_dat_o[11] 0
4 wbs_dat_o[10] wbs_dat_o[16] 0.000142856
5 wbs_dat_o[10] wbs_dat_o[7] 0.000484518
6 wbs_dat_o[10] *3826:A 0.000131439
7 wbs_dat_o[10] *3854:A 4.6025e-06
8 wbs_dat_o[10] *153:21 8.18783e-05
9 wbs_dat_o[10] *170:43 9.22103e-06
10 wbs_dat_o[10] *176:30 0
11 wbs_dat_o[10] *195:44 0.000417614
12 wbs_dat_o[10] *201:33 0.000188586
13 wbs_dat_o[10] *226:31 6.5737e-05
*RES
1 *3826:X wbs_dat_o[10] 32.5321 
*END

*D_NET *73 0.00243579
*CONN
*P wbs_dat_o[11] O
*I *3827:X O *D sky130_fd_sc_hd__buf_12
*CAP
1 wbs_dat_o[11] 0.00061775
2 *3827:X 0.00061775
3 wbs_dat_o[11] wbs_dat_o[12] 0
4 wbs_dat_o[11] *3827:A 5.51952e-05
5 wbs_dat_o[11] *3835:A 0.000120125
6 wbs_dat_o[11] *173:49 0.000180119
7 wbs_dat_o[11] *176:30 0.000220153
8 wbs_dat_o[11] *195:40 3.91784e-05
9 wbs_dat_o[11] *207:20 0.000273245
10 wbs_dat_o[11] *227:81 0.000312272
11 wbs_dat_o[10] wbs_dat_o[11] 0
*RES
1 *3827:X wbs_dat_o[11] 26.3179 
*END

*D_NET *74 0.0022948
*CONN
*P wbs_dat_o[12] O
*I *3828:X O *D sky130_fd_sc_hd__buf_12
*CAP
1 wbs_dat_o[12] 0.00070497
2 *3828:X 0.00070497
3 wbs_dat_o[12] wbs_dat_o[13] 0
4 wbs_dat_o[12] *626:DIODE 0.000139208
5 wbs_dat_o[12] *175:26 0.000436212
6 wbs_dat_o[12] *197:52 0.000309441
7 wbs_dat_o[11] wbs_dat_o[12] 0
*RES
1 *3828:X wbs_dat_o[12] 25.8357 
*END

*D_NET *75 0.00320517
*CONN
*P wbs_dat_o[13] O
*I *3829:X O *D sky130_fd_sc_hd__buf_12
*CAP
1 wbs_dat_o[13] 0.00110757
2 *3829:X 0.00110757
3 wbs_dat_o[13] wbs_dat_o[14] 0
4 wbs_dat_o[13] *641:DIODE 0.000136432
5 wbs_dat_o[13] *3831:A 6.05161e-06
6 wbs_dat_o[13] *168:55 0.00025977
7 wbs_dat_o[13] *200:59 0.000437507
8 wbs_dat_o[13] *203:37 5.60962e-05
9 wbs_dat_o[13] *227:81 9.41642e-05
10 wbs_dat_o[12] wbs_dat_o[13] 0
*RES
1 *3829:X wbs_dat_o[13] 30.5321 
*END

*D_NET *76 0.00251891
*CONN
*P wbs_dat_o[14] O
*I *3830:X O *D sky130_fd_sc_hd__buf_12
*CAP
1 wbs_dat_o[14] 0.000666202
2 *3830:X 0.000666202
3 wbs_dat_o[14] wbs_dat_o[15] 0
4 wbs_dat_o[14] *626:DIODE 0.000116964
5 wbs_dat_o[14] *3829:A 0
6 wbs_dat_o[14] *3840:A 0.000164951
7 wbs_dat_o[14] *153:49 0.00018372
8 wbs_dat_o[14] *168:55 4.81246e-05
9 wbs_dat_o[14] *175:26 0.000615124
10 wbs_dat_o[14] *203:37 4.26609e-05
11 wbs_dat_o[14] *210:14 1.49645e-05
12 wbs_dat_o[13] wbs_dat_o[14] 0
*RES
1 *3830:X wbs_dat_o[14] 27.4786 
*END

*D_NET *77 0.00275805
*CONN
*P wbs_dat_o[15] O
*I *3831:X O *D sky130_fd_sc_hd__buf_12
*CAP
1 wbs_dat_o[15] 0.000587455
2 *3831:X 0.000587455
3 wbs_dat_o[15] wbs_dat_o[16] 0
4 wbs_dat_o[15] wbs_dat_o[17] 7.07642e-05
5 wbs_dat_o[15] *3829:A 9.25014e-06
6 wbs_dat_o[15] *3831:A 0.000204318
7 wbs_dat_o[15] *153:49 0
8 wbs_dat_o[15] *168:59 0.000857081
9 wbs_dat_o[15] *200:59 0.000441731
10 wbs_dat_o[14] wbs_dat_o[15] 0
*RES
1 *3831:X wbs_dat_o[15] 27.3357 
*END

*D_NET *78 0.00286469
*CONN
*P wbs_dat_o[16] O
*I *3832:X O *D sky130_fd_sc_hd__buf_12
*CAP
1 wbs_dat_o[16] 0.000901588
2 *3832:X 0.000901588
3 wbs_dat_o[16] wbs_dat_o[17] 0
4 wbs_dat_o[16] wbs_dat_o[20] 0.000170464
5 wbs_dat_o[16] *3832:A 0.000129574
6 wbs_dat_o[16] *201:33 0.00061862
7 wbs_dat_o[10] wbs_dat_o[16] 0.000142856
8 wbs_dat_o[15] wbs_dat_o[16] 0
*RES
1 *3832:X wbs_dat_o[16] 29.2464 
*END

*D_NET *79 0.00317938
*CONN
*P wbs_dat_o[17] O
*I *3833:X O *D sky130_fd_sc_hd__buf_12
*CAP
1 wbs_dat_o[17] 0.000734781
2 *3833:X 0.000734781
3 wbs_dat_o[17] wbs_dat_o[18] 0
4 wbs_dat_o[17] *629:DIODE 0.000136881
5 wbs_dat_o[17] *3831:A 8.55871e-05
6 wbs_dat_o[17] *153:49 0.000439625
7 wbs_dat_o[17] *168:59 6.8377e-06
8 wbs_dat_o[17] *170:47 2.94004e-05
9 wbs_dat_o[17] *201:33 0
10 wbs_dat_o[17] *203:37 0.000940723
11 wbs_dat_o[15] wbs_dat_o[17] 7.07642e-05
12 wbs_dat_o[16] wbs_dat_o[17] 0
*RES
1 *3833:X wbs_dat_o[17] 29.3 
*END

*D_NET *80 0.00270444
*CONN
*P wbs_dat_o[18] O
*I *3834:X O *D sky130_fd_sc_hd__buf_12
*CAP
1 wbs_dat_o[18] 0.000755527
2 *3834:X 0.000755527
3 wbs_dat_o[18] wbs_dat_o[19] 0
4 wbs_dat_o[18] *3838:A 0.000365286
5 wbs_dat_o[18] *148:32 0.00061385
6 wbs_dat_o[18] *153:49 9.85867e-05
7 wbs_dat_o[18] *170:43 2.11628e-05
8 wbs_dat_o[18] *175:26 9.45051e-05
9 wbs_dat_o[17] wbs_dat_o[18] 0
*RES
1 *3834:X wbs_dat_o[18] 28.2107 
*END

*D_NET *81 0.00219438
*CONN
*P wbs_dat_o[19] O
*I *3835:X O *D sky130_fd_sc_hd__buf_12
*CAP
1 wbs_dat_o[19] 0.000741931
2 *3835:X 0.000741931
3 wbs_dat_o[19] wbs_dat_o[20] 0
4 wbs_dat_o[19] *3835:A 2.59355e-05
5 wbs_dat_o[19] *3838:A 6.44809e-05
6 wbs_dat_o[19] *153:49 0.000155212
7 wbs_dat_o[19] *170:43 2.11628e-05
8 wbs_dat_o[19] *204:23 0.000177671
9 wbs_dat_o[19] *207:20 0.000266057
10 wbs_dat_o[18] wbs_dat_o[19] 0
*RES
1 *3835:X wbs_dat_o[19] 26.3179 
*END

*D_NET *82 0.00142398
*CONN
*P wbs_dat_o[1] O
*I *3836:X O *D sky130_fd_sc_hd__buf_12
*CAP
1 wbs_dat_o[1] 0.000362956
2 *3836:X 0.000362956
3 wbs_dat_o[1] wbs_dat_o[2] 0
4 wbs_dat_o[1] *581:DIODE 3.09981e-05
5 wbs_dat_o[1] *3836:A 2.89114e-05
6 wbs_dat_o[1] *168:41 0.000193759
7 wbs_dat_o[1] *173:49 0.000105064
8 wbs_dat_o[1] *176:12 7.11727e-05
9 wbs_dat_o[1] *200:57 0.00026816
10 wbs_dat_o[0] wbs_dat_o[1] 0
*RES
1 *3836:X wbs_dat_o[1] 21.4607 
*END

*D_NET *83 0.00293567
*CONN
*P wbs_dat_o[20] O
*I *3837:X O *D sky130_fd_sc_hd__buf_12
*CAP
1 wbs_dat_o[20] 0.00090848
2 *3837:X 0.00090848
3 wbs_dat_o[20] wbs_dat_o[21] 0
4 wbs_dat_o[20] wbs_dat_o[25] 0.000230482
5 wbs_dat_o[20] *3837:A 0.000140856
6 wbs_dat_o[20] *3842:A 0.000353441
7 wbs_dat_o[20] *207:28 0.000223469
8 wbs_dat_o[16] wbs_dat_o[20] 0.000170464
9 wbs_dat_o[19] wbs_dat_o[20] 0
*RES
1 *3837:X wbs_dat_o[20] 31.8 
*END

*D_NET *84 0.00245853
*CONN
*P wbs_dat_o[21] O
*I *3838:X O *D sky130_fd_sc_hd__buf_12
*CAP
1 wbs_dat_o[21] 0.000590123
2 *3838:X 0.000590123
3 wbs_dat_o[21] wbs_dat_o[22] 0
4 wbs_dat_o[21] *3838:A 0.000314736
5 wbs_dat_o[21] *3840:A 0.000105549
6 wbs_dat_o[21] *153:49 7.56007e-05
7 wbs_dat_o[21] *153:57 0.000523029
8 wbs_dat_o[21] *173:49 0.000259368
9 wbs_dat_o[20] wbs_dat_o[21] 0
*RES
1 *3838:X wbs_dat_o[21] 26.6571 
*END

*D_NET *85 0.00234331
*CONN
*P wbs_dat_o[22] O
*I *3839:X O *D sky130_fd_sc_hd__buf_12
*CAP
1 wbs_dat_o[22] 0.00059093
2 *3839:X 0.00059093
3 wbs_dat_o[22] wbs_dat_o[23] 0
4 wbs_dat_o[22] wbs_dat_o[24] 0.000267558
5 wbs_dat_o[22] *631:DIODE 1.21289e-05
6 wbs_dat_o[22] *3839:A 0.000432237
7 wbs_dat_o[22] *163:18 0
8 wbs_dat_o[22] *168:59 2.12005e-05
9 wbs_dat_o[22] *170:47 0.000391597
10 wbs_dat_o[22] *173:49 0
11 wbs_dat_o[22] *203:37 3.67257e-05
12 wbs_dat_o[22] *207:28 0
13 wbs_dat_o[21] wbs_dat_o[22] 0
*RES
1 *3839:X wbs_dat_o[22] 26.3893 
*END

*D_NET *86 0.00271251
*CONN
*P wbs_dat_o[23] O
*I *3840:X O *D sky130_fd_sc_hd__buf_12
*CAP
1 wbs_dat_o[23] 0.000637159
2 *3840:X 0.000637159
3 wbs_dat_o[23] wbs_dat_o[24] 0
4 wbs_dat_o[23] *3840:A 0.000222491
5 wbs_dat_o[23] *153:57 0.000647936
6 wbs_dat_o[23] *207:28 0.000381408
7 wbs_dat_o[23] *212:18 0.00018636
8 wbs_dat_o[22] wbs_dat_o[23] 0
*RES
1 *3840:X wbs_dat_o[23] 28.425 
*END

*D_NET *87 0.00233282
*CONN
*P wbs_dat_o[24] O
*I *3841:X O *D sky130_fd_sc_hd__buf_12
*CAP
1 wbs_dat_o[24] 0.00074262
2 *3841:X 0.00074262
3 wbs_dat_o[24] wbs_dat_o[27] 0.00018372
4 wbs_dat_o[24] *158:22 7.69616e-05
5 wbs_dat_o[24] *168:61 1.6271e-05
6 wbs_dat_o[24] *212:18 0
7 wbs_dat_o[24] *215:18 0.000303068
8 wbs_dat_o[22] wbs_dat_o[24] 0.000267558
9 wbs_dat_o[23] wbs_dat_o[24] 0
*RES
1 *3841:X wbs_dat_o[24] 28.2821 
*END

*D_NET *88 0.00231681
*CONN
*P wbs_dat_o[25] O
*I *3842:X O *D sky130_fd_sc_hd__buf_12
*CAP
1 wbs_dat_o[25] 0.000685807
2 *3842:X 0.000685807
3 wbs_dat_o[25] wbs_dat_o[26] 0
4 wbs_dat_o[25] wbs_dat_o[29] 0.000185124
5 wbs_dat_o[25] *3842:A 0.000416572
6 wbs_dat_o[25] *149:27 8.21566e-05
7 wbs_dat_o[25] *190:12 3.08664e-05
8 wbs_dat_o[20] wbs_dat_o[25] 0.000230482
*RES
1 *3842:X wbs_dat_o[25] 28.3714 
*END

*D_NET *89 0.00189368
*CONN
*P wbs_dat_o[26] O
*I *3843:X O *D sky130_fd_sc_hd__buf_12
*CAP
1 wbs_dat_o[26] 0.000676627
2 *3843:X 0.000676627
3 wbs_dat_o[26] *3843:A 5.33005e-05
4 wbs_dat_o[26] *149:27 0
5 wbs_dat_o[26] *153:59 5.36975e-05
6 wbs_dat_o[26] *177:24 2.11419e-05
7 wbs_dat_o[26] *186:23 7.43578e-06
8 wbs_dat_o[26] *215:18 0
9 wbs_dat_o[26] *224:24 6.8646e-06
10 wbs_dat_o[26] *235:20 0.000318462
11 wbs_dat_o[26] *235:22 7.95274e-05
12 wbs_dat_o[25] wbs_dat_o[26] 0
*RES
1 *3843:X wbs_dat_o[26] 26.3179 
*END

*D_NET *90 0.00203429
*CONN
*P wbs_dat_o[27] O
*I *3844:X O *D sky130_fd_sc_hd__buf_12
*CAP
1 wbs_dat_o[27] 0.000708733
2 *3844:X 0.000708733
3 wbs_dat_o[27] wbs_dat_o[28] 0
4 wbs_dat_o[27] *176:32 0.000134733
5 wbs_dat_o[27] *192:20 4.0342e-06
6 wbs_dat_o[27] *215:18 0.000171741
7 wbs_dat_o[27] *224:24 0.000122598
8 wbs_dat_o[24] wbs_dat_o[27] 0.00018372
*RES
1 *3844:X wbs_dat_o[27] 27.3357 
*END

*D_NET *91 0.00163761
*CONN
*P wbs_dat_o[28] O
*I *3845:X O *D sky130_fd_sc_hd__buf_12
*CAP
1 wbs_dat_o[28] 0.000717466
2 *3845:X 0.000717466
3 wbs_dat_o[28] wbs_dat_o[29] 0
4 wbs_dat_o[28] *3845:A 5.33005e-05
5 wbs_dat_o[28] *176:32 0
6 wbs_dat_o[28] *180:29 0.000149382
7 wbs_dat_o[27] wbs_dat_o[28] 0
*RES
1 *3845:X wbs_dat_o[28] 25.8357 
*END

*D_NET *92 0.00241493
*CONN
*P wbs_dat_o[29] O
*I *3846:X O *D sky130_fd_sc_hd__buf_12
*CAP
1 wbs_dat_o[29] 0.000831953
2 *3846:X 0.000831953
3 wbs_dat_o[29] *608:DIODE 0.000121896
4 wbs_dat_o[29] *3817:A 1.04232e-05
5 wbs_dat_o[29] *3846:A 5.52302e-05
6 wbs_dat_o[29] *107:11 9.15323e-05
7 wbs_dat_o[29] *190:12 0.000286813
8 wbs_dat_o[25] wbs_dat_o[29] 0.000185124
9 wbs_dat_o[28] wbs_dat_o[29] 0
*RES
1 *3846:X wbs_dat_o[29] 30.2643 
*END

*D_NET *93 0.0021474
*CONN
*P wbs_dat_o[2] O
*I *3847:X O *D sky130_fd_sc_hd__buf_12
*CAP
1 wbs_dat_o[2] 0.000610918
2 *3847:X 0.000610918
3 wbs_dat_o[2] *3847:A 5.33005e-05
4 wbs_dat_o[2] *167:33 1.5702e-05
5 wbs_dat_o[2] *173:49 0
6 wbs_dat_o[2] *175:14 0.00023891
7 wbs_dat_o[2] *194:34 0
8 wbs_dat_o[2] *200:57 2.01732e-05
9 wbs_dat_o[2] *222:29 0.000114847
10 wbs_dat_o[2] *223:28 0.000482632
11 wbs_dat_o[1] wbs_dat_o[2] 0
*RES
1 *3847:X wbs_dat_o[2] 25.6393 
*END

*D_NET *94 0.00186536
*CONN
*P wbs_dat_o[30] O
*I *3848:X O *D sky130_fd_sc_hd__buf_12
*CAP
1 wbs_dat_o[30] 0.000794732
2 *3848:X 0.000794732
3 wbs_dat_o[30] *605:DIODE 8.07313e-05
4 wbs_dat_o[30] *103:9 3.23672e-05
5 wbs_dat_o[30] *190:12 9.37289e-05
6 wbs_dat_o[30] *192:20 6.90663e-05
*RES
1 *3848:X wbs_dat_o[30] 27.4786 
*END

*D_NET *95 0.00195279
*CONN
*P wbs_dat_o[31] O
*I *3849:X O *D sky130_fd_sc_hd__buf_12
*CAP
1 wbs_dat_o[31] 0.000656903
2 *3849:X 0.000656903
3 wbs_dat_o[31] *611:DIODE 0.000168114
4 wbs_dat_o[31] *103:9 0.000213722
5 wbs_dat_o[31] *192:14 0.000138549
6 wbs_dat_o[31] *192:20 0.000118604
*RES
1 *3849:X wbs_dat_o[31] 28.925 
*END

*D_NET *96 0.00226024
*CONN
*P wbs_dat_o[3] O
*I *3850:X O *D sky130_fd_sc_hd__buf_12
*CAP
1 wbs_dat_o[3] 0.000628527
2 *3850:X 0.000628527
3 wbs_dat_o[3] wbs_dat_o[4] 0
4 wbs_dat_o[3] wbs_dat_o[7] 5.49544e-05
5 wbs_dat_o[3] *623:DIODE 0.000131292
6 wbs_dat_o[3] *636:DIODE 5.33005e-05
7 wbs_dat_o[3] *3850:A 0.00018372
8 wbs_dat_o[3] *170:33 0.000421179
9 wbs_dat_o[3] *194:34 0.00015874
*RES
1 *3850:X wbs_dat_o[3] 26.6571 
*END

*D_NET *97 0.00217014
*CONN
*P wbs_dat_o[4] O
*I *3851:X O *D sky130_fd_sc_hd__buf_12
*CAP
1 wbs_dat_o[4] 0.000715928
2 *3851:X 0.000715928
3 wbs_dat_o[4] wbs_dat_o[6] 9.90431e-05
4 wbs_dat_o[4] *200:57 0.000639241
5 wbs_dat_o[4] *221:16 0
6 wbs_dat_o[3] wbs_dat_o[4] 0
*RES
1 *3851:X wbs_dat_o[4] 24.9964 
*END

*D_NET *98 0.00244475
*CONN
*P wbs_dat_o[5] O
*I *3852:X O *D sky130_fd_sc_hd__buf_12
*CAP
1 wbs_dat_o[5] 0.000579207
2 *3852:X 0.000579207
3 wbs_dat_o[5] wbs_dat_o[6] 0
4 wbs_dat_o[5] *3850:A 5.05056e-05
5 wbs_dat_o[5] *3852:A 5.52302e-05
6 wbs_dat_o[5] *168:41 0.000598105
7 wbs_dat_o[5] *175:14 6.58597e-05
8 wbs_dat_o[5] *197:44 0.000320024
9 wbs_dat_o[5] *198:57 5.1588e-05
10 wbs_dat_o[5] *221:16 0.000145026
*RES
1 *3852:X wbs_dat_o[5] 25.6393 
*END

*D_NET *99 0.00220079
*CONN
*P wbs_dat_o[6] O
*I *3853:X O *D sky130_fd_sc_hd__buf_12
*CAP
1 wbs_dat_o[6] 0.000659801
2 *3853:X 0.000659801
3 wbs_dat_o[6] wbs_dat_o[7] 0
4 wbs_dat_o[6] *198:57 0.000441964
5 wbs_dat_o[6] *200:57 0.000340183
6 wbs_dat_o[4] wbs_dat_o[6] 9.90431e-05
7 wbs_dat_o[5] wbs_dat_o[6] 0
*RES
1 *3853:X wbs_dat_o[6] 26.5143 
*END

*D_NET *100 0.00271678
*CONN
*P wbs_dat_o[7] O
*I *3854:X O *D sky130_fd_sc_hd__buf_12
*CAP
1 wbs_dat_o[7] 0.000668133
2 *3854:X 0.000668133
3 wbs_dat_o[7] wbs_dat_o[8] 0
4 wbs_dat_o[7] wbs_dat_o[9] 0.000117621
5 wbs_dat_o[7] *3854:A 0.000142856
6 wbs_dat_o[7] *153:21 3.98462e-05
7 wbs_dat_o[7] *170:33 0.000229536
8 wbs_dat_o[7] *195:44 0.000311183
9 wbs_dat_o[10] wbs_dat_o[7] 0.000484518
10 wbs_dat_o[3] wbs_dat_o[7] 5.49544e-05
11 wbs_dat_o[6] wbs_dat_o[7] 0
*RES
1 *3854:X wbs_dat_o[7] 28.425 
*END

*D_NET *101 0.0030022
*CONN
*P wbs_dat_o[8] O
*I *3855:X O *D sky130_fd_sc_hd__buf_12
*CAP
1 wbs_dat_o[8] 0.000849289
2 *3855:X 0.000849289
3 wbs_dat_o[8] wbs_dat_o[9] 0
4 wbs_dat_o[8] *3853:A 2.30389e-05
5 wbs_dat_o[8] *154:25 0.000184482
6 wbs_dat_o[8] *168:55 0.000434603
7 wbs_dat_o[8] *200:57 0.00034299
8 wbs_dat_o[8] *200:59 0.000222939
9 wbs_dat_o[8] *227:81 9.55684e-05
10 wbs_dat_o[7] wbs_dat_o[8] 0
*RES
1 *3855:X wbs_dat_o[8] 29.3357 
*END

*D_NET *102 0.00240228
*CONN
*P wbs_dat_o[9] O
*I *3856:X O *D sky130_fd_sc_hd__buf_12
*CAP
1 wbs_dat_o[9] 0.000653909
2 *3856:X 0.000653909
3 wbs_dat_o[9] *3854:A 0.000142856
4 wbs_dat_o[9] *3856:A 6.4974e-06
5 wbs_dat_o[9] *153:21 0.000359997
6 wbs_dat_o[9] *170:33 8.6229e-06
7 wbs_dat_o[9] *175:26 0.000178847
8 wbs_dat_o[9] *195:40 0.000152018
9 wbs_dat_o[9] *197:52 0.000128
10 wbs_dat_o[9] *226:31 0
11 wbs_dat_o[7] wbs_dat_o[9] 0.000117621
12 wbs_dat_o[8] wbs_dat_o[9] 0
*RES
1 *3856:X wbs_dat_o[9] 35.9071 
*END

*D_NET *103 0.00257805
*CONN
*P wbs_sel_i[0] I
*I *600:DIODE I *D sky130_fd_sc_hd__diode_2
*I *3813:A I *D sky130_fd_sc_hd__buf_12
*CAP
1 wbs_sel_i[0] 0.000722961
2 *600:DIODE 0.0001066
3 *3813:A 9.05815e-05
4 *103:9 0.000920142
5 *600:DIODE *604:DIODE 5.47047e-05
6 *600:DIODE *605:DIODE 6.87522e-06
7 *3813:A *3815:A 0.000114829
8 *3813:A *3849:A 0.000271601
9 *3813:A *105:5 1.59312e-05
10 *3813:A *106:5 0
11 *103:9 *605:DIODE 2.77348e-05
12 *103:9 *104:7 0
13 wbs_dat_o[30] *103:9 3.23672e-05
14 wbs_dat_o[31] *103:9 0.000213722
*RES
1 wbs_sel_i[0] *103:9 15.625 
2 *103:9 *3813:A 21.7643 
3 *103:9 *600:DIODE 10.6571 
*END

*D_NET *104 0.00177805
*CONN
*P wbs_sel_i[1] I
*I *3814:A I *D sky130_fd_sc_hd__buf_12
*I *602:DIODE I *D sky130_fd_sc_hd__diode_2
*CAP
1 wbs_sel_i[1] 0.000631764
2 *3814:A 6.31582e-05
3 *602:DIODE 0
4 *104:7 0.000694923
5 *3814:A *187:8 2.27416e-05
6 *104:7 *605:DIODE 0
7 *104:7 *3848:A 0
8 *104:7 *105:5 0
9 *104:7 *188:19 0
10 *104:7 *217:10 0.000365468
11 *103:9 *104:7 0
*RES
1 wbs_sel_i[1] *104:7 16.25 
2 *104:7 *602:DIODE 9.3 
3 *104:7 *3814:A 10.5679 
*END

*D_NET *105 0.00195367
*CONN
*P wbs_sel_i[2] I
*I *3815:A I *D sky130_fd_sc_hd__buf_12
*I *604:DIODE I *D sky130_fd_sc_hd__diode_2
*CAP
1 wbs_sel_i[2] 0.000427935
2 *3815:A 0.000237459
3 *604:DIODE 4.70906e-05
4 *105:5 0.000712484
5 *604:DIODE *601:DIODE 2.07878e-05
6 *604:DIODE *605:DIODE 2.07462e-05
7 *604:DIODE *192:14 5.47047e-05
8 *3815:A *601:DIODE 7.8327e-05
9 *3815:A *106:5 0
10 *3815:A *186:23 0.000112995
11 *105:5 *3849:A 2.68764e-05
12 *105:5 *106:5 0
13 *105:5 *192:14 2.88045e-05
14 *105:5 *217:10 0
15 *600:DIODE *604:DIODE 5.47047e-05
16 *3813:A *3815:A 0.000114829
17 *3813:A *105:5 1.59312e-05
18 *104:7 *105:5 0
*RES
1 wbs_sel_i[2] *105:5 7.19643 
2 *105:5 *604:DIODE 15.1571 
3 *105:5 *3815:A 19.2643 
*END

*D_NET *106 0.0031541
*CONN
*P wbs_sel_i[3] I
*I *3816:A I *D sky130_fd_sc_hd__buf_12
*I *606:DIODE I *D sky130_fd_sc_hd__diode_2
*CAP
1 wbs_sel_i[3] 0.000918651
2 *3816:A 0.000426804
3 *606:DIODE 0.00022562
4 *106:5 0.00157108
5 *3816:A *3849:A 0
6 *3816:A *189:8 1.19472e-05
7 *106:5 *3849:A 0
8 *3813:A *106:5 0
9 *3815:A *106:5 0
10 *105:5 *106:5 0
*RES
1 wbs_sel_i[3] *106:5 11.75 
2 *106:5 *606:DIODE 15.9786 
3 *106:5 *3816:A 19.4429 
*END

*D_NET *107 0.00195673
*CONN
*P wbs_stb_i I
*I *3817:A I *D sky130_fd_sc_hd__buf_1
*I *608:DIODE I *D sky130_fd_sc_hd__diode_2
*CAP
1 wbs_stb_i 0.000766377
2 *3817:A 1.99857e-05
3 *608:DIODE 6.41418e-05
4 *107:11 0.000850505
5 *107:11 *3846:A 3.18676e-05
6 *107:11 *108:9 0
7 wbs_dat_o[29] *608:DIODE 0.000121896
8 wbs_dat_o[29] *3817:A 1.04232e-05
9 wbs_dat_o[29] *107:11 9.15323e-05
*RES
1 wbs_stb_i *107:11 14.0714 
2 *107:11 *608:DIODE 10.6571 
3 *107:11 *3817:A 9.72857 
*END

*D_NET *108 0.00272101
*CONN
*P wbs_we_i I
*I *3819:A I *D sky130_fd_sc_hd__buf_1
*I *611:DIODE I *D sky130_fd_sc_hd__diode_2
*CAP
1 wbs_we_i 0.000425457
2 *3819:A 0.000230924
3 *611:DIODE 0.000620067
4 *108:9 0.00127645
5 wbs_dat_o[31] *611:DIODE 0.000168114
6 *107:11 *108:9 0
*RES
1 wbs_we_i *108:9 11.5536 
2 *108:9 *611:DIODE 16.4071 
3 *108:9 *3819:A 21.4607 
*END

*D_NET *109 0.00380452
*CONN
*I *3753:RESET_B I *D sky130_fd_sc_hd__dfrtp_1
*I *3719:Y O *D sky130_fd_sc_hd__inv_2
*CAP
1 *3753:RESET_B 0.00190226
2 *3719:Y 0.00190226
*RES
1 *3719:Y *3753:RESET_B 37.7018 
*END

*D_NET *110 0.0496019
*CONN
*I *399:DIODE I *D sky130_fd_sc_hd__diode_2
*I *402:DIODE I *D sky130_fd_sc_hd__diode_2
*I *3756:A I *D sky130_fd_sc_hd__clkbuf_16
*I *400:DIODE I *D sky130_fd_sc_hd__diode_2
*I *3755:A I *D sky130_fd_sc_hd__clkbuf_16
*I *3754:X O *D sky130_fd_sc_hd__clkbuf_16
*CAP
1 *399:DIODE 0
2 *402:DIODE 0
3 *3756:A 4.03093e-05
4 *400:DIODE 0
5 *3755:A 3.36349e-05
6 *3754:X 0.000183085
7 *110:42 0.000764618
8 *110:26 0.000391934
9 *110:18 0.00498714
10 *110:16 0.00558868
11 *110:10 0.00318969
12 *110:8 0.00295416
13 *110:6 0.000183085
14 *3755:A *111:30 3.04311e-05
15 *3755:A *179:29 9.58126e-05
16 *3756:A *403:DIODE 1.07719e-05
17 *110:10 *165:37 0.0074273
18 *110:10 *170:49 0.000580912
19 *110:10 *173:59 0.000876122
20 *110:10 *173:61 3.34639e-05
21 *110:10 *184:59 0.00708549
22 *110:16 *411:DIODE 0.000185401
23 *110:16 *127:19 0.00175234
24 *110:16 *156:31 0.000245397
25 *110:16 *179:49 0.000265184
26 *110:16 *183:35 0.00317442
27 *110:18 *145:56 0.0019937
28 *110:18 *156:31 0.000292109
29 *110:18 *183:33 0.00115669
30 *110:18 *183:35 0.00170317
31 *110:26 *404:DIODE 4.88142e-05
32 *110:26 *111:30 1.21258e-05
33 *110:26 *179:29 0.000219209
34 *110:26 *183:33 0.000531286
35 *110:26 *229:39 0.000272371
36 *110:42 *165:37 0.00219827
37 *110:42 *170:49 0.00109475
*RES
1 *3754:X *110:6 11.0679 
2 *110:6 *110:8 4.5 
3 *110:8 *110:10 105.768 
4 *110:10 *110:16 35.6518 
5 *110:16 *110:18 65.6339 
6 *110:18 *110:26 9.21429 
7 *110:26 *3755:A 10.2464 
8 *110:26 *400:DIODE 9.3 
9 *110:8 *110:42 32.5536 
10 *110:42 *3756:A 9.83571 
11 *110:42 *402:DIODE 9.3 
12 *110:6 *399:DIODE 9.3 
*END

*D_NET *111 0.0141282
*CONN
*I *3757:A I *D sky130_fd_sc_hd__clkinv_16
*I *404:DIODE I *D sky130_fd_sc_hd__diode_2
*I *401:DIODE I *D sky130_fd_sc_hd__diode_2
*I *396:DIODE I *D sky130_fd_sc_hd__diode_2
*I *3753:CLK I *D sky130_fd_sc_hd__dfrtp_1
*I *3755:X O *D sky130_fd_sc_hd__clkbuf_16
*CAP
1 *3757:A 0.000250536
2 *404:DIODE 0.000324946
3 *401:DIODE 0
4 *396:DIODE 0
5 *3753:CLK 7.39161e-05
6 *3755:X 0
7 *111:30 0.00103303
8 *111:14 0.00201432
9 *111:12 0.00247812
10 *111:8 0.00128475
11 *111:6 0.000289485
12 *404:DIODE *155:21 0
13 *404:DIODE *183:25 1.88048e-05
14 *3753:CLK *3753:D 4.01768e-05
15 *3753:CLK *145:16 3.48705e-05
16 *3757:A *142:25 0
17 *111:8 *142:25 0
18 *111:12 *271:DIODE 9.70394e-05
19 *111:12 *143:71 0.000138993
20 *111:12 *184:29 0
21 *111:12 *227:14 0.00014784
22 *111:12 *229:207 0.000196269
23 *111:14 *298:DIODE 4.7812e-05
24 *111:14 *300:DIODE 5.23142e-05
25 *111:14 *412:DIODE 0.000231277
26 *111:14 *145:16 0.000985694
27 *111:14 *196:16 0.00108063
28 *111:14 *197:16 0.000215348
29 *111:14 *200:12 0.000183726
30 *111:14 *200:23 0.00251826
31 *111:30 *179:27 0.000291831
32 *111:30 *179:29 6.8445e-06
33 *3755:A *111:30 3.04311e-05
34 *110:26 *404:DIODE 4.88142e-05
35 *110:26 *111:30 1.21258e-05
*RES
1 *3755:X *111:6 13.8 
2 *111:6 *111:8 0.732143 
3 *111:8 *111:12 13.7321 
4 *111:12 *111:14 53.9286 
5 *111:14 *3753:CLK 11.0679 
6 *111:14 *396:DIODE 9.3 
7 *111:8 *111:30 13.6607 
8 *111:30 *401:DIODE 9.3 
9 *111:30 *404:DIODE 22.2107 
10 *111:6 *3757:A 8.34821 
*END

*D_NET *112 0.0181333
*CONN
*I *403:DIODE I *D sky130_fd_sc_hd__diode_2
*I *458:DIODE I *D sky130_fd_sc_hd__diode_2
*I *3764:CLKin I *D CF_SRAM_1024x32
*I *3756:X O *D sky130_fd_sc_hd__clkbuf_16
*CAP
1 *403:DIODE 0.000657668
2 *458:DIODE 0
3 *3764:CLKin 0.000628089
4 *3756:X 5.22569e-05
5 *112:19 7.46181e-06
6 *112:14 0.000819135
7 *112:10 0.00209381
8 *112:8 0.0018953
9 *112:6 0.000709925
10 *3764:CLKin *3764:BEN[17] 0.000211948
11 *3764:CLKin *3764:DI[17] 0
12 *3764:CLKin *188:57 0
13 *112:10 *3764:R_WB 0.000103974
14 *112:10 *132:11 0.00640136
15 *112:10 *167:47 0.00335922
16 *112:10 *171:35 0.00118243
17 *3756:A *403:DIODE 1.07719e-05
*RES
1 *3756:X *112:6 9.83571 
2 *112:6 *112:8 4.5 
3 *112:8 *112:10 81.1786 
4 *112:10 *112:14 6.67857 
5 *112:14 *3764:CLKin 11.2143 
6 *3764:CLKin *112:19 0.142857 
7 *112:14 *458:DIODE 9.3 
8 *112:6 *403:DIODE 15.9964 
*END

*D_NET *113 0.0541144
*CONN
*I *491:DIODE I *D sky130_fd_sc_hd__diode_2
*I *369:DIODE I *D sky130_fd_sc_hd__diode_2
*I *3747:D I *D sky130_fd_sc_hd__and4b_1
*I *3764:DO[0] O *D CF_SRAM_1024x32
*CAP
1 *491:DIODE 0.000513196
2 *369:DIODE 0
3 *3747:D 4.6971e-05
4 *3764:DO[0] 0.000206361
5 *113:25 0.000543807
6 *113:19 0.00229475
7 *113:17 0.00179791
8 *113:15 0.00361185
9 *113:13 0.00361185
10 *113:11 0.000719556
11 *491:DIODE *3764:AD[3] 5.19842e-06
12 *491:DIODE *3764:ScanInCC 0.000458978
13 *491:DIODE *3764:DI[0] 0
14 *491:DIODE *213:28 7.64446e-06
15 *3747:D *194:10 6.60357e-05
16 *3747:D *194:24 1.73088e-05
17 *3747:D *230:139 0.000155249
18 *3747:D *232:123 5.81735e-05
19 *113:11 *3764:ScanInCC 0.000133446
20 *113:11 *3764:DI[0] 0
21 *113:15 *518:DIODE 0.000171332
22 *113:15 *120:14 0.0135726
23 *113:15 *121:11 0
24 *113:15 *140:11 0.00947991
25 *113:15 *174:43 0.00289266
26 *113:19 *120:18 0.00472908
27 *113:19 *123:19 0.000573176
28 *113:19 *146:15 0.00064147
29 *113:19 *146:17 0.000345352
30 *113:19 *154:29 2.41665e-05
31 *113:19 *160:29 0.000211357
32 *113:19 *166:23 0.00620058
33 *113:25 *135:21 0.000145192
34 *113:25 *160:29 0.000752276
35 *113:25 *218:31 6.09762e-05
36 *113:25 *232:123 6.6013e-05
*RES
1 *3764:DO[0] *113:11 4.47321 
2 *113:11 *113:13 4.5 
3 *113:13 *113:15 168.911 
4 *113:15 *113:17 4.5 
5 *113:17 *113:19 73.6429 
6 *113:19 *113:25 19.4464 
7 *113:25 *3747:D 11.5098 
8 *113:25 *369:DIODE 9.3 
9 *113:11 *491:DIODE 18.8714 
*END

*D_NET *114 0.0485002
*CONN
*I *492:DIODE I *D sky130_fd_sc_hd__diode_2
*I *3725:D I *D sky130_fd_sc_hd__and4b_2
*I *275:DIODE I *D sky130_fd_sc_hd__diode_2
*I *3764:DO[10] O *D CF_SRAM_1024x32
*CAP
1 *492:DIODE 0.00049769
2 *3725:D 0.000267515
3 *275:DIODE 0
4 *3764:DO[10] 9.45968e-05
5 *114:19 0.00459623
6 *114:11 0.00599115
7 *114:9 0.00166243
8 *114:7 0.000592287
9 *492:DIODE *460:DIODE 0.000177821
10 *492:DIODE *3764:DI[10] 0.000750733
11 *3725:D *144:30 4.42631e-05
12 *3725:D *195:10 0.000516482
13 *3725:D *199:47 0.000601904
14 *3725:D *231:84 2.02926e-05
15 *114:7 *3764:DI[10] 0.000183291
16 *114:11 *338:DIODE 1.3409e-05
17 *114:11 *345:DIODE 1.90936e-05
18 *114:11 *120:14 0.0055868
19 *114:11 *122:13 0.00318713
20 *114:11 *122:23 0.00240447
21 *114:11 *130:19 0.0011293
22 *114:11 *140:11 6.94671e-05
23 *114:11 *140:21 0.000139515
24 *114:11 *157:49 0.000198703
25 *114:11 *179:49 0.000230767
26 *114:11 *232:59 0.000258926
27 *114:19 *117:31 0.00050356
28 *114:19 *138:39 0.0012258
29 *114:19 *139:31 0.0085739
30 *114:19 *141:31 0.000365843
31 *114:19 *143:41 0.0006959
32 *114:19 *157:33 0.000103646
33 *114:19 *172:33 0.00375534
34 *114:19 *191:24 0.000592269
35 *114:19 *194:24 0.000213364
36 *114:19 *195:10 9.60337e-06
37 *114:19 *195:30 0.000605561
38 *114:19 *197:26 0.000213364
39 *114:19 *199:55 0.00240536
40 *114:19 *231:84 2.38651e-06
*RES
1 *3764:DO[10] *114:7 2.20536 
2 *114:7 *114:9 4.5 
3 *114:9 *114:11 80.1161 
4 *114:11 *114:19 24.5119 
5 *114:19 *275:DIODE 13.8 
6 *114:19 *3725:D 22.4786 
7 *114:7 *492:DIODE 19.2821 
*END

*D_NET *115 0.0414099
*CONN
*I *493:DIODE I *D sky130_fd_sc_hd__diode_2
*I *280:DIODE I *D sky130_fd_sc_hd__diode_2
*I *3726:D I *D sky130_fd_sc_hd__and4b_2
*I *3764:DO[11] O *D CF_SRAM_1024x32
*CAP
1 *493:DIODE 0.00036665
2 *280:DIODE 0
3 *3726:D 0.000221727
4 *3764:DO[11] 0.000212765
5 *115:19 0.0006673
6 *115:15 0.00226192
7 *115:13 0.00181634
8 *115:11 0.000973564
9 *115:9 0.000973564
10 *115:7 0.000579414
11 *493:DIODE *3764:DI[11] 0.000753688
12 *493:DIODE *153:67 5.33005e-05
13 *3726:D *178:25 4.18515e-05
14 *3726:D *179:27 0
15 *3726:D *199:47 0.000229456
16 *3726:D *231:194 0
17 *3726:D *233:91 0.000227532
18 *115:7 *3764:DI[11] 0.000385083
19 *115:11 *116:11 0.00377478
20 *115:11 *121:11 0.00044151
21 *115:11 *140:11 5.06562e-05
22 *115:11 *143:11 0.00443628
23 *115:15 *119:13 0.000381
24 *115:15 *142:21 0.000640676
25 *115:15 *144:24 0.0107963
26 *115:15 *155:23 0.00892539
27 *115:15 *162:25 0.00136643
28 *115:19 *179:27 0
29 *115:19 *231:194 0
30 *3:25 *115:11 0.000832721
*RES
1 *3764:DO[11] *115:7 4.24107 
2 *115:7 *115:9 4.5 
3 *115:9 *115:11 56.8929 
4 *115:11 *115:13 4.5 
5 *115:13 *115:15 108.554 
6 *115:15 *115:19 12.2143 
7 *115:19 *3726:D 18.8357 
8 *115:19 *280:DIODE 13.8 
9 *115:7 *493:DIODE 17.2286 
*END

*D_NET *116 0.0433489
*CONN
*I *494:DIODE I *D sky130_fd_sc_hd__diode_2
*I *3727:D I *D sky130_fd_sc_hd__and4b_2
*I *285:DIODE I *D sky130_fd_sc_hd__diode_2
*I *3764:DO[12] O *D CF_SRAM_1024x32
*CAP
1 *494:DIODE 0.000362004
2 *3727:D 0
3 *285:DIODE 0.000185456
4 *3764:DO[12] 0.00022535
5 *116:19 0.00073357
6 *116:15 0.00215476
7 *116:13 0.00160664
8 *116:11 0.000856479
9 *116:9 0.000856479
10 *116:7 0.000587354
11 *285:DIODE *197:10 0
12 *285:DIODE *198:12 1.9774e-05
13 *285:DIODE *198:27 8.50152e-05
14 *285:DIODE *231:133 0
15 *285:DIODE *233:60 0.00014183
16 *285:DIODE *233:67 5.71472e-05
17 *494:DIODE *3764:DI[12] 0.000707336
18 *494:DIODE *154:35 5.33005e-05
19 *116:7 *3764:DI[12] 0.000428473
20 *116:11 *118:11 7.71172e-05
21 *116:11 *121:11 0.0036596
22 *116:11 *140:11 1.60506e-05
23 *116:15 *118:13 0.0121421
24 *116:15 *119:13 0.0118103
25 *116:15 *144:24 0.00016796
26 *116:15 *160:29 0.0014801
27 *116:19 *199:47 0.00011765
28 *116:19 *231:133 0
29 *116:19 *231:142 0
30 *116:19 *231:194 0
31 *116:19 *233:104 9.23883e-05
32 *116:19 *233:130 0.000216147
33 *3:25 *116:11 0.000733705
34 *115:11 *116:11 0.00377478
*RES
1 *3764:DO[12] *116:7 4.63393 
2 *116:7 *116:9 4.5 
3 *116:9 *116:11 48.0893 
4 *116:11 *116:13 4.5 
5 *116:13 *116:15 114.714 
6 *116:15 *116:19 14.6429 
7 *116:19 *285:DIODE 17.5143 
8 *116:19 *3727:D 13.8 
9 *116:7 *494:DIODE 16.8179 
*END

*D_NET *117 0.0457976
*CONN
*I *495:DIODE I *D sky130_fd_sc_hd__diode_2
*I *3728:D I *D sky130_fd_sc_hd__and4b_2
*I *290:DIODE I *D sky130_fd_sc_hd__diode_2
*I *3764:DO[13] O *D CF_SRAM_1024x32
*CAP
1 *495:DIODE 0.000284233
2 *3728:D 0.000336818
3 *290:DIODE 0
4 *3764:DO[13] 0.000339848
5 *117:31 0.00709088
6 *117:11 0.0080287
7 *117:9 0.00127464
8 *117:7 0.000624081
9 *495:DIODE *463:DIODE 0.000300412
10 *495:DIODE *3764:DI[13] 0.000122591
11 *3728:D *3729:C 1.24368e-05
12 *3728:D *229:155 5.49544e-05
13 *3728:D *231:150 4.25176e-05
14 *3728:D *233:35 0.000185118
15 *3728:D *233:41 3.09506e-05
16 *3728:D *233:60 9.66977e-05
17 *3728:D *234:8 0
18 *117:7 *3764:DI[13] 0.000678715
19 *117:11 *127:11 0.00343465
20 *117:11 *129:11 0.00376819
21 *117:11 *131:11 0
22 *117:11 *187:26 0
23 *117:11 *230:17 3.51317e-05
24 *117:11 *230:23 2.93304e-05
25 *117:11 *232:51 6.19104e-05
26 *117:31 *299:DIODE 0
27 *117:31 *412:DIODE 0
28 *117:31 *3740:D 0.000135335
29 *117:31 *130:23 0.000139734
30 *117:31 *138:39 0.000258867
31 *117:31 *139:31 0.00335289
32 *117:31 *140:21 0.00358127
33 *117:31 *141:31 0.000122604
34 *117:31 *143:41 0.00281263
35 *117:31 *143:59 0.000111763
36 *117:31 *151:25 0.00267916
37 *117:31 *171:33 2.92755e-05
38 *117:31 *173:49 0.00063578
39 *117:31 *174:41 0.000424243
40 *117:31 *177:22 9.03126e-05
41 *117:31 *191:24 0.00100447
42 *117:31 *195:30 0.00124617
43 *117:31 *196:16 0.000325127
44 *117:31 *197:16 0.000101825
45 *117:31 *198:27 0
46 *117:31 *199:55 0.000488679
47 *117:31 *199:57 0.000213364
48 *117:31 *204:12 2.37838e-05
49 *117:31 *218:43 0.000230624
50 *117:31 *222:29 0.000209682
51 *117:31 *226:19 0.000207292
52 *117:31 *233:41 3.6337e-05
53 *114:19 *117:31 0.00050356
*RES
1 *3764:DO[13] *117:7 7.08036 
2 *117:7 *117:9 4.5 
3 *117:9 *117:11 50.3661 
4 *117:11 *117:31 40.6279 
5 *117:31 *290:DIODE 13.8 
6 *117:31 *3728:D 29.2107 
7 *117:7 *495:DIODE 14.3536 
*END

*D_NET *118 0.0383346
*CONN
*I *496:DIODE I *D sky130_fd_sc_hd__diode_2
*I *295:DIODE I *D sky130_fd_sc_hd__diode_2
*I *3729:D I *D sky130_fd_sc_hd__and4b_2
*I *3764:DO[14] O *D CF_SRAM_1024x32
*CAP
1 *496:DIODE 0.000403783
2 *295:DIODE 0
3 *3729:D 0.000155395
4 *3764:DO[14] 0.000275213
5 *118:17 0.000517682
6 *118:13 0.0025738
7 *118:11 0.00280311
8 *118:5 0.00127059
9 *496:DIODE *3764:DI[14] 0.000282166
10 *3729:D *3729:A_N 3.18676e-05
11 *3729:D *3729:C 5.52238e-05
12 *3729:D *119:17 0
13 *3729:D *150:19 0.000141371
14 *3729:D *234:8 0
15 *118:5 *3764:DI[14] 0.000252236
16 *118:11 *465:DIODE 0.000148656
17 *118:11 *3764:vpwrpc 0.000330311
18 *118:11 *121:11 0.00211948
19 *118:11 *123:11 0.000444025
20 *118:11 *157:51 0.00135596
21 *118:13 *119:13 0.000451993
22 *118:13 *144:24 3.14078e-05
23 *118:13 *160:29 0.00137585
24 *118:13 *181:23 0.0110952
25 *118:17 *119:17 0
26 *116:11 *118:11 7.71172e-05
27 *116:15 *118:13 0.0121421
*RES
1 *3764:DO[14] *118:5 4.99107 
2 *118:5 *118:11 38.2679 
3 *118:11 *118:13 123.339 
4 *118:13 *118:17 11 
5 *118:17 *3729:D 17.1929 
6 *118:17 *295:DIODE 13.8 
7 *118:5 *496:DIODE 15.9964 
*END

*D_NET *119 0.0358139
*CONN
*I *497:DIODE I *D sky130_fd_sc_hd__diode_2
*I *3730:D I *D sky130_fd_sc_hd__and4b_2
*I *300:DIODE I *D sky130_fd_sc_hd__diode_2
*I *3764:DO[15] O *D CF_SRAM_1024x32
*CAP
1 *497:DIODE 0.000737347
2 *3730:D 0
3 *300:DIODE 0.000188041
4 *3764:DO[15] 4.77835e-05
5 *119:17 0.00089058
6 *119:13 0.00271468
7 *119:11 0.00272996
8 *119:5 0.00150296
9 *300:DIODE *145:14 0
10 *300:DIODE *150:19 0
11 *300:DIODE *200:12 3.69697e-05
12 *497:DIODE *465:DIODE 0.000264542
13 *497:DIODE *3764:BEN[14] 0
14 *119:5 *3764:BEN[14] 0
15 *119:5 *3764:DI[15] 0
16 *119:11 *122:23 0.00149735
17 *119:11 *130:19 0.000438155
18 *119:13 *144:24 0.0105031
19 *119:13 *159:27 0.00136643
20 *119:17 *3729:B 0.00020042
21 *119:17 *145:14 0
22 *119:17 *150:19 0
23 *3729:D *119:17 0
24 *111:14 *300:DIODE 5.23142e-05
25 *115:15 *119:13 0.000381
26 *116:15 *119:13 0.0118103
27 *118:13 *119:13 0.000451993
28 *118:17 *119:17 0
*RES
1 *3764:DO[15] *119:5 0.883929 
2 *119:5 *119:11 27.9286 
3 *119:11 *119:13 120.875 
4 *119:13 *119:17 17.6786 
5 *119:17 *300:DIODE 16.4964 
6 *119:17 *3730:D 13.8 
7 *119:5 *497:DIODE 20.2464 
*END

*D_NET *120 0.0498414
*CONN
*I *498:DIODE I *D sky130_fd_sc_hd__diode_2
*I *305:DIODE I *D sky130_fd_sc_hd__diode_2
*I *3731:D I *D sky130_fd_sc_hd__and4b_1
*I *3764:DO[16] O *D CF_SRAM_1024x32
*CAP
1 *498:DIODE 0.000443481
2 *305:DIODE 3.93542e-05
3 *3731:D 5.94495e-05
4 *3764:DO[16] 8.89454e-05
5 *120:24 0.000537332
6 *120:18 0.00122985
7 *120:14 0.00496653
8 *120:12 0.0041752
9 *120:10 0.000524965
10 *120:4 7.46181e-06
11 *305:DIODE *230:110 1.74352e-05
12 *498:DIODE *3764:ScanInDR 0.000479658
13 *498:DIODE *3764:DI[16] 7.57028e-05
14 *3731:D *230:110 8.90544e-05
15 *3731:D *231:20 3.58016e-05
16 *120:10 *3764:ScanInDR 0.000226688
17 *120:10 *3764:DI[16] 0
18 *120:14 *121:11 0
19 *120:14 *122:13 0.00569343
20 *120:14 *140:11 8.44271e-06
21 *120:14 *174:43 0.00306892
22 *120:18 *122:29 0.000810921
23 *120:18 *123:19 0.000565391
24 *120:18 *146:17 0.000364698
25 *120:18 *154:29 0.00225951
26 *120:24 *184:43 1.43288e-05
27 *120:24 *231:8 4.68689e-05
28 *120:24 *231:20 0.000123477
29 *120:24 *232:107 0
30 *113:15 *120:14 0.0135726
31 *113:19 *120:18 0.00472908
32 *114:11 *120:14 0.0055868
*RES
1 *3764:DO[16] *120:4 0.142857 
2 *3764:DO[16] *120:10 2.17857 
3 *120:10 *120:12 4.5 
4 *120:12 *120:14 198.964 
5 *120:14 *120:18 49.3929 
6 *120:18 *120:24 15.8036 
7 *120:24 *3731:D 10.867 
8 *120:24 *305:DIODE 9.83571 
9 *120:10 *498:DIODE 19.7107 
*END

*D_NET *121 0.0426585
*CONN
*I *499:DIODE I *D sky130_fd_sc_hd__diode_2
*I *3732:D I *D sky130_fd_sc_hd__and4b_1
*I *310:DIODE I *D sky130_fd_sc_hd__diode_2
*I *3764:DO[17] O *D CF_SRAM_1024x32
*CAP
1 *499:DIODE 0.000381171
2 *3732:D 2.07786e-05
3 *310:DIODE 0.000279602
4 *3764:DO[17] 0.000147317
5 *121:19 0.00300423
6 *121:11 0.00916666
7 *121:9 0.00646281
8 *121:7 0.000528488
9 *310:DIODE *304:DIODE 4.46186e-06
10 *310:DIODE *405:DIODE 6.90348e-06
11 *310:DIODE *143:41 7.29156e-05
12 *310:DIODE *157:33 5.52302e-05
13 *310:DIODE *203:14 7.94608e-05
14 *310:DIODE *234:124 1.90936e-05
15 *310:DIODE *234:136 3.4323e-06
16 *499:DIODE *3764:WLBI 0.000764612
17 *499:DIODE *3764:DI[17] 0.000118793
18 *3732:D *302:DIODE 8.7131e-05
19 *3732:D *232:89 8.30599e-05
20 *121:7 *3764:WLBI 0.000419897
21 *121:7 *3764:DI[17] 0.000136004
22 *121:11 *518:DIODE 0
23 *121:11 *3764:vpwrpc 0.00280851
24 *121:11 *122:13 0
25 *121:11 *123:11 0.00548428
26 *121:11 *140:11 0
27 *121:11 *143:11 0.000891774
28 *121:19 *304:DIODE 5.58316e-05
29 *121:19 *3764:vpwrac 0
30 *121:19 *128:29 0.000121926
31 *121:19 *143:21 0.000433472
32 *121:19 *165:29 0.0047009
33 *121:19 *232:95 1.54199e-05
34 *121:19 *234:124 8.37654e-05
35 *113:15 *121:11 0
36 *115:11 *121:11 0.00044151
37 *116:11 *121:11 0.0036596
38 *118:11 *121:11 0.00211948
39 *120:14 *121:11 0
*RES
1 *3764:DO[17] *121:7 5.21429 
2 *121:7 *121:9 4.5 
3 *121:9 *121:11 204.277 
4 *121:11 *121:19 26.4059 
5 *121:19 *310:DIODE 18.1036 
6 *121:19 *3732:D 14.6348 
7 *121:7 *499:DIODE 18.05 
*END

*D_NET *122 0.049163
*CONN
*I *500:DIODE I *D sky130_fd_sc_hd__diode_2
*I *315:DIODE I *D sky130_fd_sc_hd__diode_2
*I *3733:D I *D sky130_fd_sc_hd__and4b_1
*I *3764:DO[18] O *D CF_SRAM_1024x32
*CAP
1 *500:DIODE 0.00066487
2 *315:DIODE 0.000168676
3 *3733:D 0
4 *3764:DO[18] 4.36068e-05
5 *122:33 0.000174769
6 *122:29 0.00107327
7 *122:23 0.00197247
8 *122:13 0.00840403
9 *122:11 0.00758736
10 *122:5 0.000797099
11 *315:DIODE *143:41 0.000128983
12 *315:DIODE *204:12 0.000116371
13 *315:DIODE *230:88 1.24368e-05
14 *315:DIODE *230:92 5.22665e-05
15 *500:DIODE *3764:DI[18] 0
16 *500:DIODE *188:57 0
17 *122:11 *3764:BEN[17] 0
18 *122:13 *3764:WLBI 8.04387e-05
19 *122:13 *3764:BEN[10] 0.0007999
20 *122:13 *3764:BEN[6] 0.000807829
21 *122:13 *130:19 0.00566957
22 *122:13 *202:30 1.94879e-05
23 *122:23 *130:19 0.00042187
24 *122:23 *157:49 0.000150413
25 *122:29 *123:19 0.000555459
26 *122:29 *143:41 0
27 *122:29 *146:17 0.0036552
28 *122:29 *154:29 0.00217612
29 *122:29 *234:136 0
30 *122:33 *143:41 2.3541e-05
31 *122:33 *230:92 1.36327e-05
32 *114:11 *122:13 0.00318713
33 *114:11 *122:23 0.00240447
34 *119:11 *122:23 0.00149735
35 *120:14 *122:13 0.00569343
36 *120:18 *122:29 0.000810921
37 *121:11 *122:13 0
*RES
1 *3764:DO[18] *122:5 0.785714 
2 *122:5 *122:11 6.58929 
3 *122:11 *122:13 186.67 
4 *122:13 *122:23 36.9375 
5 *122:23 *122:29 46.2321 
6 *122:29 *122:33 4.73661 
7 *122:33 *3733:D 9.3 
8 *122:33 *315:DIODE 21.492 
9 *122:5 *500:DIODE 20.1036 
*END

*D_NET *123 0.0484203
*CONN
*I *501:DIODE I *D sky130_fd_sc_hd__diode_2
*I *3734:D I *D sky130_fd_sc_hd__and4b_1
*I *320:DIODE I *D sky130_fd_sc_hd__diode_2
*I *3764:DO[19] O *D CF_SRAM_1024x32
*CAP
1 *501:DIODE 0.000361232
2 *3734:D 9.02879e-06
3 *320:DIODE 0.000163156
4 *3764:DO[19] 0.000354816
5 *123:19 0.00287115
6 *123:11 0.00796457
7 *123:9 0.00526561
8 *123:7 0.000716049
9 *320:DIODE *201:27 0.000139913
10 *320:DIODE *204:23 0.00014183
11 *320:DIODE *205:10 4.75955e-05
12 *501:DIODE *3764:DI[19] 0
13 *3734:D *143:41 2.3541e-05
14 *3734:D *230:84 1.14548e-05
15 *123:7 *3764:DI[19] 0
16 *123:11 *465:DIODE 0.000156191
17 *123:11 *129:11 0.017926
18 *123:11 *140:11 0
19 *123:11 *157:51 0.00141387
20 *123:19 *126:27 0.000414259
21 *123:19 *146:17 0.000386293
22 *123:19 *154:29 0.00041661
23 *123:19 *156:31 0
24 *123:19 *157:49 0.000241934
25 *123:19 *160:29 0.00115487
26 *123:19 *166:23 0.000618067
27 *113:19 *123:19 0.000573176
28 *118:11 *123:11 0.000444025
29 *120:18 *123:19 0.000565391
30 *121:11 *123:11 0.00548428
31 *122:29 *123:19 0.000555459
*RES
1 *3764:DO[19] *123:7 6.67857 
2 *123:7 *123:9 4.5 
3 *123:9 *123:11 227.348 
4 *123:11 *123:19 20.6425 
5 *123:19 *320:DIODE 17.1036 
6 *123:19 *3734:D 14.0366 
7 *123:7 *501:DIODE 14.3536 
*END

*D_NET *124 0.0505981
*CONN
*I *502:DIODE I *D sky130_fd_sc_hd__diode_2
*I *374:DIODE I *D sky130_fd_sc_hd__diode_2
*I *3748:D I *D sky130_fd_sc_hd__and4b_1
*I *3764:DO[1] O *D CF_SRAM_1024x32
*CAP
1 *502:DIODE 0.000271446
2 *374:DIODE 0
3 *3748:D 0.000134986
4 *3764:DO[1] 0.000533331
5 *124:21 0.000638968
6 *124:15 0.00566288
7 *124:13 0.0051589
8 *124:11 0.00363006
9 *124:9 0.00363006
10 *124:7 0.000804777
11 *502:DIODE *3764:BEN[0] 0
12 *502:DIODE *3764:DI[1] 0
13 *3748:D *206:10 0.000544487
14 *3748:D *218:6 0.000211673
15 *3748:D *218:31 5.33005e-05
16 *3748:D *227:43 0.000280602
17 *124:7 *3764:BEN[0] 0
18 *124:7 *3764:DI[1] 0
19 *124:11 *127:11 0.0124601
20 *124:11 *131:11 0.00278892
21 *124:11 *155:29 0.0028991
22 *124:11 *187:26 7.10572e-05
23 *124:11 *187:94 0.00020283
24 *124:11 *187:140 0.00072604
25 *124:15 *160:29 0.00147345
26 *124:15 *181:23 0.00804071
27 *124:21 *368:DIODE 5.05056e-05
28 *124:21 *160:29 0
29 *124:21 *161:27 0.000329907
*RES
1 *3764:DO[1] *124:7 8.86607 
2 *124:7 *124:9 4.5 
3 *124:9 *124:11 157.679 
4 *124:11 *124:13 4.5 
5 *124:13 *124:15 76.1071 
6 *124:15 *124:21 18.2321 
7 *124:21 *3748:D 14.6527 
8 *124:21 *374:DIODE 9.3 
9 *124:7 *502:DIODE 13.1393 
*END

*D_NET *125 0.0548843
*CONN
*I *503:DIODE I *D sky130_fd_sc_hd__diode_2
*I *324:DIODE I *D sky130_fd_sc_hd__diode_2
*I *3735:D I *D sky130_fd_sc_hd__and4b_1
*I *3764:DO[20] O *D CF_SRAM_1024x32
*CAP
1 *503:DIODE 4.72841e-05
2 *324:DIODE 0
3 *3735:D 3.14403e-05
4 *3764:DO[20] 0.000573321
5 *125:61 0.000778728
6 *125:39 0.00194967
7 *125:15 0.00835642
8 *125:13 0.00715403
9 *125:11 0.000620605
10 *3735:D *143:41 0.00021857
11 *3735:D *207:10 0.00014285
12 *3735:D *230:76 4.22246e-05
13 *125:11 *3764:DI[20] 0.00020581
14 *125:15 *419:DIODE 3.92854e-05
15 *125:15 *513:DIODE 0.000126439
16 *125:15 *3764:AD[1] 2.26327e-05
17 *125:15 *126:21 0.00282213
18 *125:15 *128:19 0.00180812
19 *125:15 *131:11 0
20 *125:15 *135:11 0.0113052
21 *125:15 *139:13 0.000214548
22 *125:15 *141:15 0.00267156
23 *125:15 *156:31 0.00253879
24 *125:15 *185:43 7.83587e-05
25 *125:15 *186:103 0.000765981
26 *125:15 *186:124 0.000769917
27 *125:15 *186:145 0.000771631
28 *125:15 *186:154 7.29667e-05
29 *125:15 *186:168 0.000715695
30 *125:15 *187:110 0.00077916
31 *125:15 *188:61 0.000674623
32 *125:15 *188:73 0.000218486
33 *125:15 *188:82 0.000551431
34 *125:15 *188:94 0.000218486
35 *125:15 *188:103 6.81083e-05
36 *125:15 *191:34 1.21955e-05
37 *125:15 *243:14 2.11419e-05
38 *125:39 *351:DIODE 0.000125724
39 *125:39 *3838:A 5.05056e-05
40 *125:39 *139:13 0.000396267
41 *125:39 *141:15 0.000126468
42 *125:39 *156:31 1.17921e-05
43 *125:39 *178:53 0.000151313
44 *125:39 *187:22 0.000322095
45 *125:39 *204:23 2.93514e-05
46 *125:39 *207:20 0.00181487
47 *125:39 *208:14 0.00155807
48 *125:39 *234:241 7.47077e-05
49 *125:61 *3835:A 0.000488061
50 *125:61 *157:33 0.000494542
51 *125:61 *157:49 0.000463593
52 *125:61 *167:41 8.44271e-06
53 *125:61 *174:41 3.37708e-05
54 *125:61 *195:40 8.6229e-06
55 *125:61 *204:23 0.000543629
56 *125:61 *207:10 0.000105299
57 *125:61 *207:20 5.20298e-05
58 *125:61 *230:53 0.000402784
59 *3754:A *125:15 0.000213852
60 *3:25 *125:15 2.06178e-05
*RES
1 *3764:DO[20] *125:11 11.4643 
2 *125:11 *125:13 4.5 
3 *125:13 *125:15 239.036 
4 *125:15 *125:39 49.8214 
5 *125:39 *125:61 40.75 
6 *125:61 *3735:D 11.367 
7 *125:61 *324:DIODE 9.3 
8 *125:11 *503:DIODE 9.83571 
*END

*D_NET *126 0.0593693
*CONN
*I *504:DIODE I *D sky130_fd_sc_hd__diode_2
*I *3736:D I *D sky130_fd_sc_hd__and4b_1
*I *329:DIODE I *D sky130_fd_sc_hd__diode_2
*I *3764:DO[21] O *D CF_SRAM_1024x32
*CAP
1 *504:DIODE 5.3217e-06
2 *3736:D 2.96344e-05
3 *329:DIODE 0.000146542
4 *3764:DO[21] 0.000716174
5 *126:27 0.00216486
6 *126:21 0.0128008
7 *126:17 0.0108682
8 *126:11 0.000777559
9 *329:DIODE *154:25 0
10 *329:DIODE *174:41 0
11 *329:DIODE *230:53 4.6025e-06
12 *329:DIODE *230:64 5.41048e-05
13 *504:DIODE *128:17 2.06178e-05
14 *504:DIODE *188:124 7.05143e-06
15 *3736:D *230:66 5.52238e-05
16 *3736:D *230:72 9.90814e-05
17 *3736:D *232:75 4.19343e-05
18 *3736:D *234:165 9.90367e-05
19 *126:11 *3764:DI[21] 0
20 *126:11 *128:17 0.000113778
21 *126:11 *188:124 6.04493e-05
22 *126:21 *128:17 0.000510785
23 *126:21 *128:19 0.00321463
24 *126:21 *135:11 0.0014151
25 *126:21 *138:15 0.00199468
26 *126:21 *141:15 0.00190007
27 *126:21 *142:17 0.00172884
28 *126:21 *156:31 0.000422799
29 *126:21 *171:35 0.0118257
30 *126:21 *186:124 0.000185192
31 *126:21 *186:145 0.000185192
32 *126:21 *186:168 0.000158287
33 *126:21 *187:110 0.000185192
34 *126:21 *188:82 0.000133769
35 *126:27 *143:21 0
36 *126:27 *145:58 0.000353869
37 *126:27 *156:31 0.00284829
38 *126:27 *160:29 0
39 *126:27 *178:53 0.000179037
40 *126:27 *179:29 0.000322402
41 *126:27 *182:23 0.000183698
42 *126:27 *183:35 0.000320382
43 *123:19 *126:27 0.000414259
44 *125:15 *126:21 0.00282213
*RES
1 *3764:DO[21] *126:11 17.8125 
2 *126:11 *126:17 6.90303 
3 *126:17 *126:21 47.6683 
4 *126:21 *126:27 12.8483 
5 *126:27 *329:DIODE 16.05 
6 *126:27 *3736:D 15.4563 
7 *126:11 *504:DIODE 14.0768 
*END

*D_NET *127 0.0486766
*CONN
*I *505:DIODE I *D sky130_fd_sc_hd__diode_2
*I *333:DIODE I *D sky130_fd_sc_hd__diode_2
*I *3737:D I *D sky130_fd_sc_hd__and4b_1
*I *3764:DO[22] O *D CF_SRAM_1024x32
*CAP
1 *505:DIODE 0.000311715
2 *333:DIODE 0
3 *3737:D 0.000156428
4 *3764:DO[22] 0.000473059
5 *127:19 0.00168537
6 *127:11 0.00902181
7 *127:9 0.00827765
8 *505:DIODE *3764:DI[22] 0.000441547
9 *505:DIODE *129:11 0.00013964
10 *505:DIODE *166:31 5.71472e-05
11 *3737:D *208:14 2.76033e-05
12 *3737:D *209:14 5.49627e-05
13 *3737:D *234:172 0.000175529
14 *127:9 *3764:BEN[21] 0
15 *127:9 *3764:DI[22] 0
16 *127:9 *188:130 0
17 *127:11 *129:11 0.00852984
18 *127:11 *131:11 0
19 *127:11 *187:26 9.74361e-05
20 *127:11 *187:156 0.000701878
21 *127:11 *188:41 0.000668027
22 *127:11 *188:57 9.67412e-05
23 *127:19 *156:31 0.00011307
24 *110:16 *127:19 0.00175234
25 *117:11 *127:11 0.00343465
26 *124:11 *127:11 0.0124601
*RES
1 *3764:DO[22] *127:9 13.0714 
2 *127:9 *127:11 259.375 
3 *127:11 *127:19 30.0357 
4 *127:19 *3737:D 16.4027 
5 *127:19 *333:DIODE 13.8 
6 *127:9 *505:DIODE 21.9071 
*END

*D_NET *128 0.0532142
*CONN
*I *506:DIODE I *D sky130_fd_sc_hd__diode_2
*I *337:DIODE I *D sky130_fd_sc_hd__diode_2
*I *3738:D I *D sky130_fd_sc_hd__and4b_1
*I *3764:DO[23] O *D CF_SRAM_1024x32
*CAP
1 *506:DIODE 5.01427e-05
2 *337:DIODE 0
3 *3738:D 0.000240832
4 *3764:DO[23] 0.000664643
5 *128:29 0.00216206
6 *128:19 0.00732232
7 *128:17 0.00680518
8 *128:9 0.00211886
9 *506:DIODE *132:11 4.57538e-05
10 *506:DIODE *188:170 6.30388e-05
11 *3738:D *210:14 0.000201755
12 *3738:D *234:179 1.54675e-05
13 *128:9 *3764:DI[23] 0
14 *128:17 *132:11 0.00193309
15 *128:17 *164:37 5.10822e-05
16 *128:17 *171:35 0.000147837
17 *128:17 *188:61 8.9142e-05
18 *128:17 *188:73 8.59039e-05
19 *128:17 *188:82 0.000207401
20 *128:17 *188:94 8.59039e-05
21 *128:17 *188:103 0.000181741
22 *128:17 *188:115 5.5782e-05
23 *128:17 *188:124 0.000174589
24 *128:17 *188:150 7.58571e-05
25 *128:17 *188:159 0.000290838
26 *128:17 *188:170 8.15939e-05
27 *128:19 *419:DIODE 7.83659e-05
28 *128:19 *516:DIODE 0.000103041
29 *128:19 *3764:AD[1] 5.4695e-05
30 *128:19 *3764:AD[9] 0.000118248
31 *128:19 *132:11 0.00222094
32 *128:19 *138:13 0.000165428
33 *128:19 *138:15 0.0102027
34 *128:19 *141:15 0.00813992
35 *128:19 *169:32 1.24469e-05
36 *128:19 *186:103 0.000398465
37 *128:19 *186:124 0.000419865
38 *128:19 *186:145 0.000422171
39 *128:19 *186:154 4.58096e-05
40 *128:19 *186:168 0.000384594
41 *128:19 *188:61 0.000225498
42 *128:19 *191:34 2.06178e-05
43 *128:19 *243:14 1.01912e-05
44 *128:19 *244:14 2.11419e-05
45 *128:29 *143:21 0.000823398
46 *128:29 *164:23 0.000406027
47 *128:29 *167:45 0
48 *128:29 *210:14 0
49 *504:DIODE *128:17 2.06178e-05
50 *121:19 *128:29 0.000121926
51 *125:15 *128:19 0.00180812
52 *126:11 *128:17 0.000113778
53 *126:21 *128:17 0.000510785
54 *126:21 *128:19 0.00321463
*RES
1 *3764:DO[23] *128:9 16.2857 
2 *128:9 *128:17 47.6875 
3 *128:17 *128:19 215.438 
4 *128:19 *128:29 42.8214 
5 *128:29 *3738:D 13.367 
6 *128:29 *337:DIODE 9.3 
7 *128:9 *506:DIODE 15.4429 
*END

*D_NET *129 0.0493219
*CONN
*I *507:DIODE I *D sky130_fd_sc_hd__diode_2
*I *341:DIODE I *D sky130_fd_sc_hd__diode_2
*I *3739:D I *D sky130_fd_sc_hd__and4b_1
*I *3764:DO[24] O *D CF_SRAM_1024x32
*CAP
1 *507:DIODE 0.000344195
2 *341:DIODE 0
3 *3739:D 0.000240024
4 *3764:DO[24] 0.000307884
5 *129:17 0.000297646
6 *129:11 0.0076372
7 *129:9 0.00823166
8 *507:DIODE *3764:DI[24] 0.000287754
9 *507:DIODE *168:65 3.18676e-05
10 *3739:D *211:14 0.000216755
11 *3739:D *212:18 9.41642e-05
12 *3739:D *230:27 0.000300634
13 *3739:D *230:29 3.37161e-05
14 *3739:D *230:33 6.20302e-05
15 *129:9 *3764:DI[24] 7.33638e-05
16 *129:11 *131:11 0
17 *129:11 *187:156 0.000701878
18 *129:17 *212:18 4.25176e-05
19 *129:17 *230:27 5.49544e-05
20 *505:DIODE *129:11 0.00013964
21 *117:11 *129:11 0.00376819
22 *123:11 *129:11 0.017926
23 *127:11 *129:11 0.00852984
*RES
1 *3764:DO[24] *129:9 10.9286 
2 *129:9 *129:11 284.875 
3 *129:11 *129:17 5.57143 
4 *129:17 *3739:D 14.6705 
5 *129:17 *341:DIODE 9.3 
6 *129:9 *507:DIODE 21.5143 
*END

*D_NET *130 0.0599587
*CONN
*I *508:DIODE I *D sky130_fd_sc_hd__diode_2
*I *3740:D I *D sky130_fd_sc_hd__and4b_1
*I *345:DIODE I *D sky130_fd_sc_hd__diode_2
*I *3764:DO[25] O *D CF_SRAM_1024x32
*CAP
1 *508:DIODE 0.000654656
2 *3740:D 0.000261653
3 *345:DIODE 9.18182e-05
4 *3764:DO[25] 0.000131866
5 *130:23 0.000399637
6 *130:19 0.0079177
7 *130:17 0.00794374
8 *130:9 0.000858729
9 *345:DIODE *338:DIODE 1.90936e-05
10 *345:DIODE *204:23 4.87953e-05
11 *508:DIODE *3764:DI[25] 0.000888458
12 *508:DIODE *170:53 3.18676e-05
13 *3740:D *347:DIODE 4.46689e-05
14 *3740:D *140:21 2.83129e-05
15 *3740:D *230:27 6.44047e-05
16 *3740:D *234:230 5.87037e-05
17 *130:9 *3764:BEN[24] 0
18 *130:9 *3764:DI[25] 0
19 *130:19 *3764:BEN[22] 0.000288278
20 *130:19 *3764:BEN[10] 0.000358845
21 *130:19 *3764:BEN[6] 0.000362745
22 *130:19 *174:43 0.0249602
23 *130:19 *202:30 0.00642875
24 *130:23 *140:21 0.000132869
25 *3:25 *130:19 2.98245e-05
26 *114:11 *345:DIODE 1.90936e-05
27 *114:11 *130:19 0.0011293
28 *117:31 *3740:D 0.000135335
29 *117:31 *130:23 0.000139734
30 *119:11 *130:19 0.000438155
31 *122:13 *130:19 0.00566957
32 *122:23 *130:19 0.00042187
*RES
1 *3764:DO[25] *130:9 6.96429 
2 *130:9 *130:17 7.17982 
3 *130:17 *130:19 51.6091 
4 *130:19 *130:23 3.63717 
5 *130:23 *345:DIODE 18.4332 
6 *130:23 *3740:D 18.9609 
7 *130:9 *508:DIODE 28.6214 
*END

*D_NET *131 0.043452
*CONN
*I *509:DIODE I *D sky130_fd_sc_hd__diode_2
*I *349:DIODE I *D sky130_fd_sc_hd__diode_2
*I *3741:D I *D sky130_fd_sc_hd__and4b_1
*I *3764:DO[26] O *D CF_SRAM_1024x32
*CAP
1 *509:DIODE 0.000239381
2 *349:DIODE 0.000289244
3 *3741:D 7.31115e-05
4 *3764:DO[26] 0.000462437
5 *131:11 0.0120704
6 *131:9 0.0124098
7 *349:DIODE *348:DIODE 2.01732e-05
8 *349:DIODE *139:13 6.92093e-05
9 *349:DIODE *204:23 0.000138217
10 *349:DIODE *212:18 0.000130441
11 *349:DIODE *232:51 1.98218e-05
12 *509:DIODE *3764:DI[26] 0.000271526
13 *509:DIODE *132:11 0
14 *509:DIODE *189:63 0
15 *3741:D *212:18 6.05161e-06
16 *3741:D *230:23 1.86695e-05
17 *3741:D *232:39 2.3541e-05
18 *3741:D *232:51 1.00332e-05
19 *131:9 *3764:DI[26] 7.97349e-05
20 *131:11 *348:DIODE 0.000147702
21 *131:11 *513:DIODE 4.15116e-05
22 *131:11 *132:11 0
23 *131:11 *135:11 0.000530312
24 *131:11 *139:13 0.0015246
25 *131:11 *152:33 0.0051754
26 *131:11 *186:57 0.000805441
27 *131:11 *186:68 0.000748947
28 *131:11 *186:89 0.00076317
29 *131:11 *187:26 0.00161434
30 *131:11 *187:46 0.000684235
31 *131:11 *187:58 0.000104198
32 *131:11 *187:69 0.000821012
33 *131:11 *187:94 0.000723684
34 *131:11 *187:140 0.000375419
35 *131:11 *188:41 0.000210547
36 *131:11 *188:57 3.35282e-05
37 *131:11 *188:124 0
38 *131:11 *188:159 0
39 *131:11 *189:63 0
40 *131:11 *230:17 2.30339e-05
41 *131:11 *230:23 4.2313e-06
42 *117:11 *131:11 0
43 *124:11 *131:11 0.00278892
44 *125:15 *131:11 0
45 *127:11 *131:11 0
46 *129:11 *131:11 0
*RES
1 *3764:DO[26] *131:9 13.3958 
2 *131:9 *131:11 303.545 
3 *131:11 *3741:D 15.1527 
4 *131:11 *349:DIODE 18.8982 
5 *131:9 *509:DIODE 18.7464 
*END

*D_NET *132 0.0576546
*CONN
*I *510:DIODE I *D sky130_fd_sc_hd__diode_2
*I *3742:D I *D sky130_fd_sc_hd__and4b_1
*I *353:DIODE I *D sky130_fd_sc_hd__diode_2
*I *3764:DO[27] O *D CF_SRAM_1024x32
*CAP
1 *510:DIODE 0.000183795
2 *3742:D 7.69997e-05
3 *353:DIODE 0.000224123
4 *3764:DO[27] 0.000714961
5 *132:11 0.0092161
6 *132:9 0.00981373
7 *353:DIODE *352:DIODE 4.15183e-05
8 *353:DIODE *138:39 0.00017018
9 *353:DIODE *148:34 0
10 *353:DIODE *150:45 1.59689e-05
11 *353:DIODE *212:18 0.000183726
12 *353:DIODE *232:12 1.1594e-05
13 *510:DIODE *172:43 9.77072e-05
14 *3742:D *352:DIODE 6.67451e-05
15 *3742:D *3742:B 1.24368e-05
16 *3742:D *3843:A 1.51571e-05
17 *132:9 *3764:DI[27] 6.38358e-05
18 *132:11 *411:DIODE 6.98302e-05
19 *132:11 *487:DIODE 0.000117189
20 *132:11 *516:DIODE 0.000201127
21 *132:11 *3764:AD[9] 5.02726e-05
22 *132:11 *133:24 0
23 *132:11 *138:13 0.000317434
24 *132:11 *138:15 0.00179794
25 *132:11 *138:39 0.000118417
26 *132:11 *142:15 8.07951e-05
27 *132:11 *142:17 0.00750947
28 *132:11 *144:20 2.94501e-05
29 *132:11 *159:27 0.000509328
30 *132:11 *167:47 0.00227256
31 *132:11 *169:32 1.01912e-05
32 *132:11 *171:35 0.00498124
33 *132:11 *178:53 0
34 *132:11 *182:35 0.000110008
35 *132:11 *182:37 0.00775051
36 *132:11 *188:170 0
37 *132:11 *189:77 0
38 *132:11 *232:10 0.000199345
39 *132:11 *232:12 9.54798e-06
40 *132:11 *244:14 1.01912e-05
41 *506:DIODE *132:11 4.57538e-05
42 *509:DIODE *132:11 0
43 *112:10 *132:11 0.00640136
44 *128:17 *132:11 0.00193309
45 *128:19 *132:11 0.00222094
46 *131:11 *132:11 0
*RES
1 *3764:DO[27] *132:9 17.5321 
2 *132:9 *132:11 313.107 
3 *132:11 *353:DIODE 17.8179 
4 *132:11 *3742:D 15.2866 
5 *132:9 *510:DIODE 16.3893 
*END

*D_NET *133 0.0603087
*CONN
*I *3743:D I *D sky130_fd_sc_hd__and4b_1
*I *356:DIODE I *D sky130_fd_sc_hd__diode_2
*I *511:DIODE I *D sky130_fd_sc_hd__diode_2
*I *3764:DO[28] O *D CF_SRAM_1024x32
*CAP
1 *3743:D 0.000102374
2 *356:DIODE 0.000126722
3 *511:DIODE 0
4 *3764:DO[28] 0.000652353
5 *133:24 0.01094
6 *133:22 0.0109745
7 *133:13 0.000916002
8 *356:DIODE *148:34 0.000136875
9 *356:DIODE *232:10 0
10 *3743:D *150:71 0.000149088
11 *3743:D *179:49 9.60939e-05
12 *3743:D *192:73 0.000231411
13 *3743:D *192:75 9.55684e-05
14 *133:13 *3764:DI[28] 0.000548515
15 *133:13 *173:65 8.76257e-05
16 *133:22 *173:65 0.00021692
17 *133:24 *145:82 0
18 *133:24 *146:39 0.000344847
19 *133:24 *148:34 0.0143563
20 *133:24 *154:31 0.00010224
21 *133:24 *159:35 0.0151772
22 *133:24 *161:29 0.00101794
23 *133:24 *167:47 0
24 *133:24 *169:32 0.00274415
25 *133:24 *171:35 0.00127416
26 *133:24 *173:61 0
27 *133:24 *178:53 1.78465e-05
28 *133:24 *182:35 0
29 *132:11 *133:24 0
*RES
1 *3764:DO[28] *133:13 14.6071 
2 *133:13 *511:DIODE 9.3 
3 *133:13 *133:22 8.32143 
4 *133:22 *133:24 322.214 
5 *133:24 *356:DIODE 15.7464 
6 *133:24 *3743:D 16.9116 
*END

*D_NET *134 0.0515587
*CONN
*I *512:DIODE I *D sky130_fd_sc_hd__diode_2
*I *3744:D I *D sky130_fd_sc_hd__and4b_1
*I *359:DIODE I *D sky130_fd_sc_hd__diode_2
*I *3764:DO[29] O *D CF_SRAM_1024x32
*CAP
1 *512:DIODE 7.73701e-05
2 *3744:D 0.000112644
3 *359:DIODE 0.000137425
4 *3764:DO[29] 0.000595482
5 *134:26 0.00032103
6 *134:22 0.00912917
7 *134:20 0.00991949
8 *134:12 0.00153413
9 *134:4 0
10 *359:DIODE *190:30 0.00017947
11 *512:DIODE *189:133 4.06782e-05
12 *3744:D *150:97 1.24368e-05
13 *3744:D *172:37 0.000137475
14 *3744:D *175:30 0.000137073
15 *3744:D *192:58 6.44047e-05
16 *134:12 *480:DIODE 8.54274e-05
17 *134:12 *3764:DI[29] 0.000185367
18 *134:20 *189:124 2.42082e-05
19 *134:20 *189:133 5.5782e-05
20 *134:22 *153:59 0.00228549
21 *134:22 *153:67 0.000929505
22 *134:22 *172:37 0.00288382
23 *134:22 *172:39 0.011854
24 *134:22 *177:24 0.00772117
25 *134:22 *190:30 7.29712e-05
26 *134:22 *191:34 0.00297804
27 *134:26 *190:30 8.46829e-05
*RES
1 *3764:DO[29] *134:4 0.21875 
2 *3764:DO[29] *134:12 16.5357 
3 *134:12 *134:20 24 
4 *134:20 *134:22 329.804 
5 *134:22 *134:26 5.44643 
6 *134:26 *359:DIODE 11.0679 
7 *134:26 *3744:D 20.8937 
8 *134:12 *512:DIODE 15.4429 
*END

*D_NET *135 0.0550103
*CONN
*I *513:DIODE I *D sky130_fd_sc_hd__diode_2
*I *3749:D I *D sky130_fd_sc_hd__and4b_1
*I *379:DIODE I *D sky130_fd_sc_hd__diode_2
*I *3764:DO[2] O *D CF_SRAM_1024x32
*CAP
1 *513:DIODE 0.000139513
2 *3749:D 0.000448124
3 *379:DIODE 4.65677e-05
4 *3764:DO[2] 0.000491917
5 *135:21 0.00127723
6 *135:15 0.00219701
7 *135:13 0.00141448
8 *135:11 0.00319241
9 *135:9 0.00382384
10 *379:DIODE *227:43 9.54798e-06
11 *379:DIODE *232:123 2.26232e-05
12 *379:DIODE *234:90 7.29646e-05
13 *3749:D *386:DIODE 2.4905e-05
14 *3749:D *3748:A_N 1.578e-05
15 *3749:D *3749:C 1.54175e-05
16 *3749:D *138:39 0.000459577
17 *3749:D *159:27 3.43988e-06
18 *3749:D *234:90 1.08716e-05
19 *135:9 *3764:DI[2] 0.000357618
20 *135:11 *139:13 0.00956971
21 *135:15 *142:21 4.40603e-05
22 *135:15 *152:29 0.00859468
23 *135:15 *161:27 0.000109473
24 *135:15 *164:23 0.00767587
25 *135:15 *165:29 0.00137421
26 *135:21 *159:27 0
27 *135:21 *232:123 3.27526e-05
28 *135:21 *234:90 2.19232e-05
29 *113:25 *135:21 0.000145192
30 *125:15 *513:DIODE 0.000126439
31 *125:15 *135:11 0.0113052
32 *126:21 *135:11 0.0014151
33 *131:11 *513:DIODE 4.15116e-05
34 *131:11 *135:11 0.000530312
*RES
1 *3764:DO[2] *135:9 14.6339 
2 *135:9 *135:11 143.714 
3 *135:11 *135:13 4.5 
4 *135:13 *135:15 82.2679 
5 *135:15 *135:21 17 
6 *135:21 *379:DIODE 14.8357 
7 *135:21 *3749:D 23.0171 
8 *135:9 *513:DIODE 16.3893 
*END

*D_NET *136 0.0492928
*CONN
*I *362:DIODE I *D sky130_fd_sc_hd__diode_2
*I *3745:D I *D sky130_fd_sc_hd__and4b_1
*I *514:DIODE I *D sky130_fd_sc_hd__diode_2
*I *3764:DO[30] O *D CF_SRAM_1024x32
*CAP
1 *362:DIODE 0.00039075
2 *3745:D 5.25809e-05
3 *514:DIODE 0
4 *3764:DO[30] 0.000622272
5 *136:22 0.0142282
6 *136:20 0.0149767
7 *136:11 0.0018141
8 *362:DIODE *364:DIODE 0
9 *362:DIODE *176:32 6.08466e-05
10 *362:DIODE *216:16 3.15914e-05
11 *3745:D *192:41 1.3144e-05
12 *3745:D *217:10 1.40749e-05
13 *136:11 *3764:DI[30] 0.000576194
14 *136:11 *176:36 8.76257e-05
15 *136:20 *176:36 0.00180057
16 *136:22 *364:DIODE 0
17 *136:22 *137:22 0
18 *136:22 *176:32 0.0146241
19 *136:22 *180:29 0
*RES
1 *3764:DO[30] *136:11 13.8393 
2 *136:11 *514:DIODE 9.3 
3 *136:11 *136:20 22.2857 
4 *136:20 *136:22 341.643 
5 *136:22 *3745:D 14.5723 
6 *136:22 *362:DIODE 18.7464 
*END

*D_NET *137 0.0624065
*CONN
*I *3746:D I *D sky130_fd_sc_hd__and4b_1
*I *365:DIODE I *D sky130_fd_sc_hd__diode_2
*I *515:DIODE I *D sky130_fd_sc_hd__diode_2
*I *3764:DO[31] O *D CF_SRAM_1024x32
*CAP
1 *3746:D 0.00033325
2 *365:DIODE 0
3 *515:DIODE 0
4 *3764:DO[31] 0.000621339
5 *137:24 0.00033325
6 *137:22 0.0127682
7 *137:20 0.0142301
8 *137:11 0.00208326
9 *3746:D *3746:B 5.29348e-05
10 *3746:D *3848:A 0.000110135
11 *3746:D *190:12 7.14469e-05
12 *3746:D *192:28 0.000109399
13 *3746:D *213:22 1.90656e-05
14 *3746:D *216:16 5.39166e-06
15 *137:11 *3764:DI[31] 0.000576194
16 *137:11 *177:28 8.76257e-05
17 *137:20 *177:28 0.00145301
18 *137:22 *180:29 0.0155597
19 *137:22 *213:22 6.22314e-05
20 *137:22 *213:24 0.0139301
21 *136:22 *137:22 0
*RES
1 *3764:DO[31] *137:11 13.8214 
2 *137:11 *515:DIODE 9.3 
3 *137:11 *137:20 24.75 
4 *137:20 *137:22 353.179 
5 *137:22 *137:24 4.5 
6 *137:24 *365:DIODE 9.3 
7 *137:24 *3746:D 23.483 
*END

*D_NET *138 0.058378
*CONN
*I *516:DIODE I *D sky130_fd_sc_hd__diode_2
*I *384:DIODE I *D sky130_fd_sc_hd__diode_2
*I *3750:D I *D sky130_fd_sc_hd__and4b_1
*I *3764:DO[3] O *D CF_SRAM_1024x32
*CAP
1 *516:DIODE 0.000152392
2 *384:DIODE 0.000123575
3 *3750:D 5.372e-05
4 *3764:DO[3] 0.000639578
5 *138:39 0.00665576
6 *138:15 0.00954902
7 *138:13 0.0032016
8 *138:9 0.000923021
9 *384:DIODE *3749:A_N 8.6229e-06
10 *384:DIODE *150:33 2.78576e-05
11 *384:DIODE *155:21 2.72337e-05
12 *384:DIODE *231:44 2.88045e-05
13 *384:DIODE *231:252 7.11841e-05
14 *384:DIODE *234:52 2.27983e-05
15 *3750:D *385:DIODE 6.05161e-06
16 *3750:D *231:44 1.21258e-05
17 *3750:D *231:46 1.25212e-05
18 *138:9 *3764:DI[3] 0.000397469
19 *138:9 *178:65 4.73569e-05
20 *138:15 *141:15 0.000385437
21 *138:15 *142:15 7.05447e-05
22 *138:15 *142:17 0.00750704
23 *138:39 *3749:A_N 1.94879e-05
24 *138:39 *139:31 0.00135524
25 *138:39 *140:21 0.00734062
26 *138:39 *141:15 0.00011545
27 *138:39 *143:41 0.000216501
28 *138:39 *148:34 0
29 *138:39 *172:33 0.000572722
30 *138:39 *174:41 0.000140137
31 *138:39 *191:24 0.0003398
32 *138:39 *206:35 0.000103646
33 *138:39 *218:31 0.000246879
34 *138:39 *231:252 2.09826e-05
35 *138:39 *232:29 0
36 *138:39 *234:90 0.000562789
37 *138:39 *234:124 0.000404848
38 *353:DIODE *138:39 0.00017018
39 *3749:D *138:39 0.000459577
40 *114:19 *138:39 0.0012258
41 *117:31 *138:39 0.000258867
42 *126:21 *138:15 0.00199468
43 *128:19 *516:DIODE 0.000103041
44 *128:19 *138:13 0.000165428
45 *128:19 *138:15 0.0102027
46 *132:11 *516:DIODE 0.000201127
47 *132:11 *138:13 0.000317434
48 *132:11 *138:15 0.00179794
49 *132:11 *138:39 0.000118417
*RES
1 *3764:DO[3] *138:9 17.1161 
2 *138:9 *138:13 4.5625 
3 *138:13 *138:15 139.964 
4 *138:15 *138:39 36.9524 
5 *138:39 *3750:D 14.6348 
6 *138:39 *384:DIODE 16.2821 
7 *138:9 *516:DIODE 17.7107 
*END

*D_NET *139 0.0572872
*CONN
*I *517:DIODE I *D sky130_fd_sc_hd__diode_2
*I *389:DIODE I *D sky130_fd_sc_hd__diode_2
*I *3751:D I *D sky130_fd_sc_hd__and4b_1
*I *3764:DO[4] O *D CF_SRAM_1024x32
*CAP
1 *517:DIODE 8.01176e-05
2 *389:DIODE 0
3 *3751:D 0.00015927
4 *3764:DO[4] 0.000447226
5 *139:31 0.00372584
6 *139:13 0.00693184
7 *139:11 0.00336527
8 *139:9 0.000527343
9 *517:DIODE *3764:DI[4] 5.96516e-05
10 *3751:D *222:6 0.000178786
11 *3751:D *227:43 0.000216127
12 *139:9 *3764:DI[4] 0.000799709
13 *139:13 *348:DIODE 0.000155212
14 *139:13 *351:DIODE 0.000124869
15 *139:13 *152:33 0.0051754
16 *139:13 *186:57 0.000803788
17 *139:13 *186:68 0.000757334
18 *139:13 *186:89 0.000772281
19 *139:13 *204:23 0.000129589
20 *139:13 *212:18 5.79582e-06
21 *139:13 *234:241 6.38329e-05
22 *139:31 *140:21 2.36299e-05
23 *139:31 *141:31 0.005131
24 *139:31 *155:21 1.94945e-05
25 *139:31 *172:33 0.00135736
26 *139:31 *191:24 0.000478496
27 *139:31 *201:27 0.000121926
28 *139:31 *204:23 0.000135196
29 *139:31 *210:14 0.000137183
30 *139:31 *218:31 0.000103646
31 *139:31 *222:19 0.000213364
32 *139:31 *223:12 2.09897e-05
33 *139:31 *230:45 9.2539e-06
34 *349:DIODE *139:13 6.92093e-05
35 *114:19 *139:31 0.0085739
36 *117:31 *139:31 0.00335289
37 *125:15 *139:13 0.000214548
38 *125:39 *139:13 0.000396267
39 *131:11 *139:13 0.0015246
40 *135:11 *139:13 0.00956971
41 *138:39 *139:31 0.00135524
*RES
1 *3764:DO[4] *139:9 9.9375 
2 *139:9 *139:11 4.5 
3 *139:11 *139:13 139.92 
4 *139:13 *139:31 36.3119 
5 *139:31 *3751:D 13.4205 
6 *139:31 *389:DIODE 9.3 
7 *139:9 *517:DIODE 10.6571 
*END

*D_NET *140 0.0529677
*CONN
*I *518:DIODE I *D sky130_fd_sc_hd__diode_2
*I *3752:D I *D sky130_fd_sc_hd__and4b_2
*I *394:DIODE I *D sky130_fd_sc_hd__diode_2
*I *3764:DO[5] O *D CF_SRAM_1024x32
*CAP
1 *518:DIODE 0.000642576
2 *3752:D 0.000134263
3 *394:DIODE 4.37205e-05
4 *3764:DO[5] 0.000161104
5 *140:21 0.00356031
6 *140:11 0.00634499
7 *140:9 0.00376635
8 *394:DIODE *183:25 8.65561e-05
9 *394:DIODE *223:12 8.47076e-05
10 *518:DIODE *3764:BEN[4] 0
11 *518:DIODE *3764:DI[5] 0
12 *3752:D *395:DIODE 7.18158e-05
13 *3752:D *3750:B 0.000123617
14 *3752:D *183:25 8.34917e-05
15 *3752:D *223:8 2.60984e-05
16 *3752:D *223:12 1.90936e-05
17 *3752:D *229:58 0.000171813
18 *3752:D *233:266 7.45777e-05
19 *140:9 *3764:DI[5] 0.000306321
20 *140:11 *143:11 0.00678045
21 *140:11 *174:43 0.000334573
22 *140:11 *179:49 2.32661e-05
23 *140:11 *184:57 0.000182893
24 *140:21 *338:DIODE 8.51829e-05
25 *140:21 *347:DIODE 1.08359e-05
26 *140:21 *141:31 0.00522106
27 *140:21 *174:41 0.00135463
28 *140:21 *191:24 0.000478496
29 *140:21 *227:43 0.000111763
30 *140:21 *230:116 0.000103646
31 *3740:D *140:21 2.83129e-05
32 *3:25 *140:11 0.0015374
33 *113:15 *518:DIODE 0.000171332
34 *113:15 *140:11 0.00947991
35 *114:11 *140:11 6.94671e-05
36 *114:11 *140:21 0.000139515
37 *115:11 *140:11 5.06562e-05
38 *116:11 *140:11 1.60506e-05
39 *117:31 *140:21 0.00358127
40 *120:14 *140:11 8.44271e-06
41 *121:11 *518:DIODE 0
42 *121:11 *140:11 0
43 *123:11 *140:11 0
44 *130:23 *140:21 0.000132869
45 *138:39 *140:21 0.00734062
46 *139:31 *140:21 2.36299e-05
*RES
1 *3764:DO[5] *140:9 8.02679 
2 *140:9 *140:11 125.045 
3 *140:11 *140:21 24.4615 
4 *140:21 *394:DIODE 14.9875 
5 *140:21 *3752:D 18.1304 
6 *140:9 *518:DIODE 23.9786 
*END

*D_NET *141 0.0570002
*CONN
*I *519:DIODE I *D sky130_fd_sc_hd__diode_2
*I *3721:D I *D sky130_fd_sc_hd__and4b_2
*I *255:DIODE I *D sky130_fd_sc_hd__diode_2
*I *3764:DO[6] O *D CF_SRAM_1024x32
*CAP
1 *519:DIODE 3.88965e-05
2 *3721:D 0
3 *255:DIODE 0.00041161
4 *3764:DO[6] 0.00069237
5 *141:31 0.00458578
6 *141:15 0.00723287
7 *141:13 0.00305871
8 *141:11 0.000731267
9 *255:DIODE *256:DIODE 5.33005e-05
10 *255:DIODE *259:DIODE 7.14469e-05
11 *255:DIODE *392:DIODE 5.47047e-05
12 *255:DIODE *143:59 1.11798e-05
13 *255:DIODE *143:61 9.55684e-05
14 *255:DIODE *150:33 0.000168011
15 *255:DIODE *185:27 0.000119174
16 *519:DIODE *487:DIODE 2.59355e-05
17 *141:11 *487:DIODE 6.05161e-06
18 *141:11 *3764:DI[6] 0.000448307
19 *141:15 *156:31 0.00265655
20 *141:15 *178:53 2.51989e-05
21 *141:15 *185:43 7.6644e-05
22 *141:15 *187:22 0.000367931
23 *141:15 *187:110 0.00077916
24 *141:31 *143:59 0.000133005
25 *141:31 *171:33 0.00496361
26 *141:31 *173:49 3.47641e-06
27 *141:31 *174:41 0.00070387
28 *141:31 *177:22 0.0023551
29 *141:31 *185:27 4.18801e-05
30 *141:31 *191:24 0.000910324
31 *141:31 *199:57 0.000188464
32 *141:31 *218:43 0.000272506
33 *141:31 *225:18 9.93827e-05
34 *141:31 *227:81 0.000991293
35 *141:31 *228:39 0.000203224
36 *3754:A *141:15 0.0002234
37 *3:25 *141:15 2.06178e-05
38 *114:19 *141:31 0.000365843
39 *117:31 *141:31 0.000122604
40 *125:15 *141:15 0.00267156
41 *125:39 *141:15 0.000126468
42 *126:21 *141:15 0.00190007
43 *128:19 *141:15 0.00813992
44 *138:15 *141:15 0.000385437
45 *138:39 *141:15 0.00011545
46 *139:31 *141:31 0.005131
47 *140:21 *141:31 0.00522106
*RES
1 *3764:DO[6] *141:11 12.2768 
2 *141:11 *141:13 4.5 
3 *141:13 *141:15 121.705 
4 *141:15 *141:31 37.2717 
5 *141:31 *255:DIODE 20.9071 
6 *141:31 *3721:D 13.8 
7 *141:11 *519:DIODE 9.83571 
*END

*D_NET *142 0.0514145
*CONN
*I *520:DIODE I *D sky130_fd_sc_hd__diode_2
*I *3722:D I *D sky130_fd_sc_hd__and4b_2
*I *260:DIODE I *D sky130_fd_sc_hd__diode_2
*I *3764:DO[7] O *D CF_SRAM_1024x32
*CAP
1 *520:DIODE 0
2 *3722:D 0
3 *260:DIODE 0.000338676
4 *3764:DO[7] 0.000679721
5 *142:25 0.00102877
6 *142:21 0.00258434
7 *142:19 0.00189424
8 *142:17 0.00180735
9 *142:15 0.00248707
10 *260:DIODE *257:DIODE 0
11 *260:DIODE *184:29 0.000444512
12 *260:DIODE *185:27 0
13 *260:DIODE *200:23 0.000186669
14 *260:DIODE *226:12 0.000158455
15 *142:15 *3764:DI[7] 0.000956964
16 *142:15 *183:47 2.59355e-05
17 *142:21 *144:24 4.57504e-05
18 *142:21 *152:29 0.0100763
19 *142:21 *155:23 0.00933993
20 *142:21 *161:27 0.00147007
21 *142:21 *164:23 7.8428e-05
22 *142:25 *184:29 0.000229938
23 *142:25 *185:27 0
24 *3757:A *142:25 0
25 *111:8 *142:25 0
26 *115:15 *142:21 0.000640676
27 *126:21 *142:17 0.00172884
28 *132:11 *142:15 8.07951e-05
29 *132:11 *142:17 0.00750947
30 *135:15 *142:21 4.40603e-05
31 *138:15 *142:15 7.05447e-05
32 *138:15 *142:17 0.00750704
*RES
1 *3764:DO[7] *142:15 18.7232 
2 *142:15 *142:17 94.8393 
3 *142:17 *142:19 4.5 
4 *142:19 *142:21 104.036 
5 *142:21 *142:25 15.8571 
6 *142:25 *260:DIODE 21.4607 
7 *142:25 *3722:D 13.8 
8 *142:15 *520:DIODE 13.8 
*END

*D_NET *143 0.0485987
*CONN
*I *521:DIODE I *D sky130_fd_sc_hd__diode_2
*I *265:DIODE I *D sky130_fd_sc_hd__diode_2
*I *3723:D I *D sky130_fd_sc_hd__and4b_2
*I *246:DIODE I *D sky130_fd_sc_hd__diode_2
*I *3764:DO[8] O *D CF_SRAM_1024x32
*CAP
1 *521:DIODE 0.000371565
2 *265:DIODE 0
3 *3723:D 0
4 *246:DIODE 5.88293e-05
5 *3764:DO[8] 0.00017627
6 *143:71 0.000281232
7 *143:61 0.000497655
8 *143:59 0.00253329
9 *143:41 0.0044116
10 *143:21 0.00353392
11 *143:11 0.00284177
12 *143:9 0.00146142
13 *143:7 0.000547835
14 *246:DIODE *3723:A_N 0.000224577
15 *246:DIODE *199:47 0.000159852
16 *246:DIODE *231:69 2.14757e-05
17 *246:DIODE *233:186 9.41642e-05
18 *521:DIODE *3764:DI[8] 0.000799612
19 *521:DIODE *184:63 5.33005e-05
20 *143:7 *3764:DI[8] 0.000349279
21 *143:21 *154:25 0.000515079
22 *143:21 *164:23 0.00235133
23 *143:21 *167:41 0.000161625
24 *143:21 *167:45 0
25 *143:41 *172:33 0.000348613
26 *143:41 *177:22 0.000122231
27 *143:41 *191:24 0.000159381
28 *143:41 *195:34 0.000103646
29 *143:41 *199:55 3.7143e-05
30 *143:41 *201:23 7.14469e-05
31 *143:41 *203:14 0.000103617
32 *143:41 *207:10 1.98839e-05
33 *143:41 *228:27 0.000213364
34 *143:41 *230:72 4.82947e-05
35 *143:41 *230:76 0.000100349
36 *143:41 *230:78 5.41609e-05
37 *143:41 *230:80 3.67142e-05
38 *143:41 *230:84 0.000121901
39 *143:41 *230:88 0.000118286
40 *143:41 *230:92 7.68551e-05
41 *143:41 *230:104 0.000214017
42 *143:41 *234:136 0.00018597
43 *143:41 *234:143 0.000563518
44 *143:41 *234:150 0.000566624
45 *143:41 *234:157 0.000473275
46 *143:59 *259:DIODE 3.72472e-05
47 *143:59 *387:DIODE 0.000302646
48 *143:59 *392:DIODE 0.000106835
49 *143:59 *152:27 5.04054e-05
50 *143:59 *162:25 6.20855e-06
51 *143:59 *185:27 4.46406e-05
52 *143:59 *195:30 0.00141541
53 *143:59 *199:55 8.51784e-05
54 *143:59 *200:23 0.000940546
55 *143:59 *226:19 3.68898e-05
56 *143:59 *233:206 0.000134853
57 *143:61 *150:33 0.000605248
58 *143:71 *3723:A_N 0.000175892
59 *143:71 *150:33 5.33005e-05
60 *143:71 *233:186 0.000165385
61 *255:DIODE *143:59 1.11798e-05
62 *255:DIODE *143:61 9.55684e-05
63 *310:DIODE *143:41 7.29156e-05
64 *315:DIODE *143:41 0.000128983
65 *3734:D *143:41 2.3541e-05
66 *3735:D *143:41 0.00021857
67 *3:25 *143:11 0.00120453
68 *111:12 *143:71 0.000138993
69 *114:19 *143:41 0.0006959
70 *115:11 *143:11 0.00443628
71 *117:31 *143:41 0.00281263
72 *117:31 *143:59 0.000111763
73 *121:11 *143:11 0.000891774
74 *121:19 *143:21 0.000433472
75 *122:29 *143:41 0
76 *122:33 *143:41 2.3541e-05
77 *126:27 *143:21 0
78 *128:29 *143:21 0.000823398
79 *138:39 *143:41 0.000216501
80 *140:11 *143:11 0.00678045
81 *141:31 *143:59 0.000133005
*RES
1 *3764:DO[8] *143:7 3.88393 
2 *143:7 *143:9 4.5 
3 *143:9 *143:11 84.2143 
4 *143:11 *143:21 48.375 
5 *143:21 *143:41 49.7548 
6 *143:41 *143:59 48.2411 
7 *143:59 *143:61 5.875 
8 *143:61 *143:71 13.25 
9 *143:71 *246:DIODE 11.8893 
10 *143:71 *3723:D 9.3 
11 *143:61 *265:DIODE 9.3 
12 *143:7 *521:DIODE 17.6393 
*END

*D_NET *144 0.0490832
*CONN
*I *270:DIODE I *D sky130_fd_sc_hd__diode_2
*I *3724:D I *D sky130_fd_sc_hd__and4b_2
*I *522:DIODE I *D sky130_fd_sc_hd__diode_2
*I *3764:DO[9] O *D CF_SRAM_1024x32
*CAP
1 *270:DIODE 0.000317138
2 *3724:D 0.000152355
3 *522:DIODE 0
4 *3764:DO[9] 0.000663288
5 *144:30 0.00115633
6 *144:24 0.00272626
7 *144:22 0.00203943
8 *144:20 0.00147637
9 *144:18 0.0016557
10 *144:9 0.000842613
11 *270:DIODE *229:78 0.000135028
12 *270:DIODE *229:84 0.000110141
13 *3724:D *229:84 1.13883e-05
14 *3724:D *231:84 3.04311e-05
15 *144:9 *3764:DI[9] 0.000766552
16 *144:20 *154:31 1.43864e-05
17 *144:20 *159:27 0.000473553
18 *144:20 *167:47 0.00565885
19 *144:20 *171:35 0.00103878
20 *144:20 *182:35 0.000348068
21 *144:20 *182:37 0.00550982
22 *144:24 *155:23 0.000207189
23 *144:24 *159:27 0.00157505
24 *144:24 *181:23 0.000199797
25 *144:30 *182:21 0.000166772
26 *144:30 *231:84 0.000189696
27 *144:30 *233:177 0
28 *3725:D *144:30 4.42631e-05
29 *115:15 *144:24 0.0107963
30 *116:15 *144:24 0.00016796
31 *118:13 *144:24 3.14078e-05
32 *119:13 *144:24 0.0105031
33 *132:11 *144:20 2.94501e-05
34 *142:21 *144:24 4.57504e-05
*RES
1 *3764:DO[9] *144:9 12.9196 
2 *144:9 *522:DIODE 9.3 
3 *144:9 *144:18 6.26786 
4 *144:18 *144:20 76.3214 
5 *144:20 *144:22 4.5 
6 *144:22 *144:24 111.839 
7 *144:24 *144:30 21.2679 
8 *144:30 *3724:D 11.3893 
9 *144:30 *270:DIODE 13.675 
*END

*D_NET *145 0.0826215
*CONN
*I *251:DIODE I *D sky130_fd_sc_hd__diode_2
*I *3764:EN I *D CF_SRAM_1024x32
*I *523:DIODE I *D sky130_fd_sc_hd__diode_2
*I *397:DIODE I *D sky130_fd_sc_hd__diode_2
*I *3753:D I *D sky130_fd_sc_hd__dfrtp_1
*I *3720:X O *D sky130_fd_sc_hd__and2_4
*CAP
1 *251:DIODE 0.000171695
2 *3764:EN 0.000695538
3 *523:DIODE 0
4 *397:DIODE 0
5 *3753:D 0.000193305
6 *3720:X 0
7 *145:86 0.00120976
8 *145:82 0.00388609
9 *145:80 0.00337186
10 *145:78 0.00129629
11 *145:58 0.00264113
12 *145:56 0.00178531
13 *145:42 0.0023274
14 *145:16 0.00206799
15 *145:14 0.00300909
16 *145:6 0.00304954
17 *145:4 0.000199907
18 *251:DIODE *249:DIODE 6.58926e-05
19 *251:DIODE *3720:A 0.000139907
20 *251:DIODE *3720:B 2.44318e-05
21 *3764:EN *3764:WLOFF 0.00105506
22 *3764:EN *3764:SM 0
23 *145:6 *249:DIODE 5.65955e-05
24 *145:42 *249:DIODE 0.000187042
25 *145:42 *3720:A 3.53079e-05
26 *145:42 *3720:B 0.000232399
27 *145:42 *152:27 0.000166325
28 *145:42 *178:25 1.5424e-05
29 *145:42 *179:27 0.00163861
30 *145:42 *182:23 0.00129568
31 *145:42 *184:43 0.000139907
32 *145:42 *185:27 0
33 *145:42 *231:194 2.32517e-05
34 *145:42 *234:35 0.000685203
35 *145:42 *234:46 0.000184745
36 *145:56 *159:27 8.51637e-06
37 *145:56 *165:29 0
38 *145:56 *178:31 9.25014e-06
39 *145:56 *183:33 0.00199205
40 *145:56 *229:27 3.28967e-05
41 *145:56 *229:279 1.36251e-05
42 *145:56 *233:297 2.42135e-05
43 *145:58 *156:31 0.000281663
44 *145:58 *179:29 0.00632363
45 *145:58 *182:23 1.38323e-05
46 *145:58 *183:33 0.00153627
47 *145:58 *183:35 0.00622978
48 *145:58 *184:57 0.00160533
49 *145:78 *146:39 7.29646e-05
50 *145:78 *148:34 0.00147142
51 *145:78 *151:35 0.00136829
52 *145:78 *163:18 0.00077499
53 *145:78 *163:20 1.44868e-05
54 *145:78 *169:32 0.000207159
55 *145:78 *173:59 0.000777412
56 *145:78 *182:35 0
57 *145:82 *146:39 0.00131809
58 *145:82 *163:20 0.0102066
59 *145:82 *173:61 0.01308
60 *300:DIODE *145:14 0
61 *3753:CLK *3753:D 4.01768e-05
62 *3753:CLK *145:16 3.48705e-05
63 *110:18 *145:56 0.0019937
64 *111:14 *145:16 0.000985694
65 *119:17 *145:14 0
66 *126:27 *145:58 0.000353869
67 *133:24 *145:82 0
*RES
1 *3720:X *145:4 9.3 
2 *145:4 *145:6 0.946429 
3 *145:6 *145:14 27.9107 
4 *145:14 *145:16 25.5893 
5 *145:16 *3753:D 11.9071 
6 *145:16 *397:DIODE 9.3 
7 *145:6 *145:42 48.375 
8 *145:42 *145:56 39.0893 
9 *145:56 *145:58 76.1071 
10 *145:58 *145:78 46.5147 
11 *145:78 *145:80 4.5 
12 *145:80 *145:82 165.268 
13 *145:82 *145:86 9.96429 
14 *145:86 *523:DIODE 9.3 
15 *145:86 *3764:EN 15.6473 
16 *145:4 *251:DIODE 12.7286 
*END

*D_NET *146 0.0595469
*CONN
*I *3764:R_WB I *D CF_SRAM_1024x32
*I *524:DIODE I *D sky130_fd_sc_hd__diode_2
*I *248:DIODE I *D sky130_fd_sc_hd__diode_2
*I *3718:Y O *D sky130_fd_sc_hd__clkinv_4
*CAP
1 *3764:R_WB 0.000661624
2 *524:DIODE 0.000146207
3 *248:DIODE 0
4 *3718:Y 3.07408e-05
5 *146:43 0.0010843
6 *146:39 0.00362741
7 *146:37 0.00335094
8 *146:35 0.000744839
9 *146:17 0.00602849
10 *146:15 0.00666417
11 *146:6 0.00141126
12 *524:DIODE *180:33 5.99922e-05
13 *3764:R_WB *3764:AD[0] 0.00113045
14 *3764:R_WB *3764:AD[1] 0
15 *3764:R_WB *3764:WLOFF 0
16 *3764:R_WB *167:47 0.000103974
17 *3764:R_WB *180:33 0.000265025
18 *146:6 *3718:A 0.00010096
19 *146:15 *3718:A 8.76257e-05
20 *146:15 *229:279 5.52238e-05
21 *146:17 *154:29 0.000687844
22 *146:17 *166:23 2.82833e-05
23 *146:35 *151:35 0.000627376
24 *146:35 *163:18 0.000625662
25 *146:35 *163:20 0.00155011
26 *146:35 *173:59 7.05143e-06
27 *146:35 *173:61 0.00154114
28 *146:39 *148:34 0.000463603
29 *146:39 *151:43 0.0108445
30 *146:39 *163:20 0.0102686
31 *146:43 *180:33 0.000116648
32 *112:10 *3764:R_WB 0.000103974
33 *113:19 *146:15 0.00064147
34 *113:19 *146:17 0.000345352
35 *120:18 *146:17 0.000364698
36 *122:29 *146:17 0.0036552
37 *123:19 *146:17 0.000386293
38 *133:24 *146:39 0.000344847
39 *145:78 *146:39 7.29646e-05
40 *145:82 *146:39 0.00131809
*RES
1 *3718:Y *146:6 10.2464 
2 *146:6 *248:DIODE 9.3 
3 *146:6 *146:15 24.5804 
4 *146:15 *146:17 72.2054 
5 *146:17 *146:35 48.0893 
6 *146:35 *146:37 4.5 
7 *146:37 *146:39 161.321 
8 *146:39 *146:43 7.91071 
9 *146:43 *524:DIODE 11.0679 
10 *146:43 *3764:R_WB 24.7902 
*END

*D_NET *147 0.00314477
*CONN
*I *3719:A I *D sky130_fd_sc_hd__inv_2
*I *3774:X O *D sky130_fd_sc_hd__buf_1
*CAP
1 *3719:A 0
2 *3774:X 0.00156323
3 *147:12 0.00156323
4 wbs_ack_o *147:12 1.41706e-05
5 *4:7 *147:12 4.1331e-06
*RES
1 *3774:X *147:12 44.4071 
2 *147:12 *3719:A 9.3 
*END

*D_NET *148 0.0808629
*CONN
*I *526:DIODE I *D sky130_fd_sc_hd__diode_2
*I *422:DIODE I *D sky130_fd_sc_hd__diode_2
*I *3764:AD[6] I *D CF_SRAM_1024x32
*I *3775:X O *D sky130_fd_sc_hd__buf_4
*CAP
1 *526:DIODE 0
2 *422:DIODE 0
3 *3764:AD[6] 0.000456001
4 *3775:X 0.000448674
5 *148:38 0.000688539
6 *148:34 0.00426502
7 *148:32 0.00627409
8 *148:22 0.0109343
9 *148:20 0.00884822
10 *148:14 0.000604179
11 *3764:AD[6] *3764:AD[5] 0
12 *3764:AD[6] *3764:AD[7] 0.0011456
13 *148:14 *622:DIODE 4.03274e-05
14 *148:22 *3853:A 8.51331e-05
15 *148:22 *151:25 0.000292109
16 *148:22 *175:14 0.00972243
17 *148:22 *213:16 0.00114799
18 *148:22 *225:32 0.00195494
19 *148:32 *3838:A 2.77173e-05
20 *148:32 *151:25 0.000213364
21 *148:32 *151:35 5.35746e-05
22 *148:32 *153:49 1.38323e-05
23 *148:32 *153:57 0.000402368
24 *148:32 *175:14 1.69961e-05
25 *148:32 *175:26 0.00198971
26 *148:34 *350:DIODE 7.29646e-05
27 *148:34 *150:45 0
28 *148:34 *151:35 0.000606035
29 *148:34 *151:43 0.0108465
30 *148:34 *165:29 0.000379499
31 *148:34 *169:32 0.00151786
32 *148:34 *179:49 0.000103267
33 *148:38 *3764:AD[7] 8.44071e-05
34 *148:38 *149:31 0.00043116
35 wbs_dat_o[18] *148:32 0.00061385
36 *353:DIODE *148:34 0
37 *356:DIODE *148:34 0.000136875
38 *525:DIODE *148:14 7.45864e-05
39 *527:DIODE *148:14 9.33978e-07
40 *36:13 *148:14 7.85388e-05
41 *133:24 *148:34 0.0143563
42 *138:39 *148:34 0
43 *145:78 *148:34 0.00147142
44 *146:39 *148:34 0.000463603
*RES
1 *3775:X *148:14 25.1929 
2 *148:14 *148:20 11.25 
3 *148:20 *148:22 162.357 
4 *148:22 *148:32 36.3304 
5 *148:32 *148:34 190.134 
6 *148:34 *148:38 9.55357 
7 *148:38 *3764:AD[6] 11.7009 
8 *148:38 *422:DIODE 9.3 
9 *148:14 *526:DIODE 9.3 
*END

*D_NET *149 0.0920403
*CONN
*I *423:DIODE I *D sky130_fd_sc_hd__diode_2
*I *3764:AD[7] I *D CF_SRAM_1024x32
*I *528:DIODE I *D sky130_fd_sc_hd__diode_2
*I *3776:X O *D sky130_fd_sc_hd__buf_4
*CAP
1 *423:DIODE 0
2 *3764:AD[7] 0.00059197
3 *528:DIODE 0
4 *3776:X 0.000210644
5 *149:31 0.0015491
6 *149:27 0.00563527
7 *149:25 0.00467814
8 *149:23 0.00315748
9 *149:21 0.00333077
10 *149:8 0.000383936
11 *3764:AD[7] *3764:AD[8] 0
12 *149:23 *158:18 0.0199916
13 *149:23 *169:22 0.000930792
14 *149:23 *235:14 0.0205686
15 *149:27 *158:22 0.0151315
16 *149:27 *160:31 9.49066e-05
17 *149:27 *172:39 0.00114878
18 *149:27 *175:30 0.0126318
19 wbs_dat_o[25] *149:27 8.21566e-05
20 wbs_dat_o[26] *149:27 0
21 *3764:AD[6] *3764:AD[7] 0.0011456
22 *3776:A *149:8 9.90367e-05
23 *3785:A *149:21 2.59355e-05
24 *7:9 *149:21 0.000103253
25 *8:5 *149:21 3.34672e-05
26 *148:38 *3764:AD[7] 8.44071e-05
27 *148:38 *149:31 0.00043116
*RES
1 *3776:X *149:8 12.3179 
2 *149:8 *528:DIODE 9.3 
3 *149:8 *149:21 11.6964 
4 *149:21 *149:23 195.214 
5 *149:23 *149:25 4.5 
6 *149:25 *149:27 198.054 
7 *149:27 *149:31 15.3036 
8 *149:31 *3764:AD[7] 12.5759 
9 *149:31 *423:DIODE 9.3 
*END

*D_NET *150 0.0375002
*CONN
*I *3746:B I *D sky130_fd_sc_hd__and4b_1
*I *364:DIODE I *D sky130_fd_sc_hd__diode_2
*I *361:DIODE I *D sky130_fd_sc_hd__diode_2
*I *3745:B I *D sky130_fd_sc_hd__and4b_1
*I *3744:B I *D sky130_fd_sc_hd__and4b_1
*I *358:DIODE I *D sky130_fd_sc_hd__diode_2
*I *3743:B I *D sky130_fd_sc_hd__and4b_1
*I *355:DIODE I *D sky130_fd_sc_hd__diode_2
*I *3763:A I *D sky130_fd_sc_hd__clkbuf_4
*I *414:DIODE I *D sky130_fd_sc_hd__diode_2
*I *530:DIODE I *D sky130_fd_sc_hd__diode_2
*I *3777:X O *D sky130_fd_sc_hd__clkbuf_2
*CAP
1 *3746:B 0.000384246
2 *364:DIODE 6.0273e-05
3 *361:DIODE 0
4 *3745:B 9.33278e-05
5 *3744:B 1.9971e-05
6 *358:DIODE 0
7 *3743:B 4.36033e-05
8 *355:DIODE 0
9 *3763:A 0
10 *414:DIODE 0
11 *530:DIODE 0.000103776
12 *3777:X 0
13 *150:119 0.00101259
14 *150:103 0.000114956
15 *150:97 0.000957702
16 *150:78 0.000541423
17 *150:71 0.000398846
18 *150:56 0.000548175
19 *150:45 0.000519539
20 *150:37 0.00234205
21 *150:35 0.00210318
22 *150:33 0.00188227
23 *150:26 0.00197542
24 *150:19 0.00101569
25 *150:4 0.00100482
26 *364:DIODE *180:29 8.65622e-05
27 *3743:B *3761:A 5.33005e-05
28 *3745:B *192:41 7.15808e-05
29 *3745:B *192:43 7.05645e-05
30 *3745:B *217:10 0.000141486
31 *3746:B *190:14 5.47001e-05
32 *3746:B *192:28 5.33005e-05
33 *3746:B *213:22 2.84151e-05
34 *3746:B *213:24 1.10105e-05
35 *150:19 *412:DIODE 0
36 *150:19 *3729:B 0
37 *150:19 *151:10 0
38 *150:19 *151:25 0
39 *150:19 *200:12 5.9483e-05
40 *150:19 *234:8 0
41 *150:26 *199:14 2.78576e-05
42 *150:26 *234:28 5.06736e-05
43 *150:33 *252:DIODE 0.000137179
44 *150:33 *256:DIODE 9.41642e-05
45 *150:33 *268:DIODE 9.62992e-05
46 *150:33 *289:DIODE 0.000141931
47 *150:33 *3728:B 0.000183726
48 *150:33 *3758:A 9.77072e-05
49 *150:33 *178:25 0.00305047
50 *150:33 *184:43 2.97042e-05
51 *150:33 *199:14 1.48556e-05
52 *150:33 *199:47 3.97677e-05
53 *150:33 *229:10 0.00323987
54 *150:33 *229:14 5.47047e-05
55 *150:33 *229:39 5.33005e-05
56 *150:33 *229:41 0.000223194
57 *150:33 *229:313 3.7678e-05
58 *150:33 *231:44 5.96516e-05
59 *150:33 *232:107 0.00026974
60 *150:33 *233:108 0.000269735
61 *150:33 *233:164 0.000111362
62 *150:33 *233:177 9.43968e-05
63 *150:33 *233:297 0.00307399
64 *150:33 *234:28 7.53919e-05
65 *150:33 *234:35 0.00043959
66 *150:35 *3760:A 1.00733e-05
67 *150:37 *304:DIODE 0.000292492
68 *150:37 *335:DIODE 0.000527778
69 *150:37 *342:DIODE 0.000221058
70 *150:37 *348:DIODE 0.000136432
71 *150:37 *405:DIODE 0.000175892
72 *150:37 *3759:A 6.86487e-05
73 *150:37 *179:49 0.000385222
74 *150:37 *184:47 0.00136307
75 *150:37 *187:22 6.25907e-05
76 *150:37 *229:313 0.00022245
77 *150:37 *230:6 0.00046978
78 *150:37 *230:355 0.000220306
79 *150:37 *231:321 0.000264057
80 *150:37 *232:97 3.47395e-05
81 *150:37 *232:107 2.2816e-05
82 *150:37 *234:124 0.000178043
83 *150:37 *234:266 5.47047e-05
84 *150:37 *234:273 0.000570046
85 *150:37 *234:280 0.000570046
86 *150:37 *234:287 0.000572181
87 *150:37 *234:294 0.000563624
88 *150:45 *352:DIODE 1.83776e-05
89 *150:45 *3843:A 9.8621e-05
90 *150:45 *232:10 5.03223e-05
91 *150:45 *232:12 9.60337e-06
92 *150:56 *3843:A 0.000268396
93 *150:56 *151:35 0.000189461
94 *150:56 *163:18 0.000187937
95 *150:71 *151:35 8.869e-05
96 *150:71 *163:18 9.49984e-05
97 *150:71 *192:60 2.1806e-05
98 *150:71 *192:73 0.000135848
99 *150:78 *192:58 3.96735e-05
100 *150:78 *192:60 6.84479e-05
101 *150:97 *172:37 2.06112e-05
102 *150:97 *175:30 2.21972e-05
103 *150:97 *192:58 1.38323e-05
104 *150:103 *177:24 4.28249e-05
105 *150:103 *235:22 4.28249e-05
106 *255:DIODE *150:33 0.000168011
107 *300:DIODE *150:19 0
108 *353:DIODE *150:45 1.59689e-05
109 *362:DIODE *364:DIODE 0
110 *384:DIODE *150:33 2.78576e-05
111 *529:DIODE *530:DIODE 5.52238e-05
112 *531:DIODE *150:19 0
113 *3729:D *150:19 0.000141371
114 *3743:D *150:71 0.000149088
115 *3744:D *150:97 1.24368e-05
116 *3746:D *3746:B 5.29348e-05
117 *3777:A *530:DIODE 9.90431e-05
118 *119:17 *150:19 0
119 *136:22 *364:DIODE 0
120 *143:61 *150:33 0.000605248
121 *143:71 *150:33 5.33005e-05
122 *148:34 *150:45 0
*RES
1 *3777:X *150:4 9.3 
2 *150:4 *530:DIODE 11.4786 
3 *150:4 *150:19 24.2321 
4 *150:19 *414:DIODE 9.3 
5 *150:19 *150:26 2.17857 
6 *150:26 *3763:A 9.3 
7 *150:26 *150:33 72 
8 *150:33 *150:35 0.428571 
9 *150:35 *150:37 57.625 
10 *150:37 *150:45 12.8036 
11 *150:45 *355:DIODE 9.3 
12 *150:45 *150:56 9.64286 
13 *150:56 *3743:B 14.3357 
14 *150:56 *150:71 9.25 
15 *150:71 *358:DIODE 9.3 
16 *150:71 *150:78 2.58929 
17 *150:78 *3744:B 9.72857 
18 *150:78 *150:97 9.63047 
19 *150:97 *150:103 8.49036 
20 *150:103 *3745:B 12.3179 
21 *150:103 *361:DIODE 9.3 
22 *150:97 *150:119 0.983867 
23 *150:119 *364:DIODE 18.3975 
24 *150:119 *3746:B 19.7162 
*END

*D_NET *151 0.0779756
*CONN
*I *459:DIODE I *D sky130_fd_sc_hd__diode_2
*I *3764:DI[0] I *D CF_SRAM_1024x32
*I *532:DIODE I *D sky130_fd_sc_hd__diode_2
*I *3778:X O *D sky130_fd_sc_hd__clkbuf_4
*CAP
1 *459:DIODE 0
2 *3764:DI[0] 0.000748377
3 *532:DIODE 0
4 *3778:X 0.000250497
5 *151:47 0.00127249
6 *151:43 0.00311227
7 *151:41 0.00264439
8 *151:35 0.00140652
9 *151:25 0.00718591
10 *151:10 0.00608612
11 *3764:DI[0] *3764:ScanInDL 9.35836e-06
12 *151:10 *555:DIODE 2.8082e-05
13 *151:10 *198:27 0
14 *151:25 *171:33 0.00557404
15 *151:25 *173:49 0.000485254
16 *151:25 *173:59 0.000349803
17 *151:25 *177:22 1.10782e-05
18 *151:25 *191:24 0.00229023
19 *151:25 *213:16 0.0143095
20 *151:25 *225:32 0.000304825
21 *151:35 *350:DIODE 7.29646e-05
22 *151:35 *3839:A 0.000317659
23 *151:35 *163:18 0.000219811
24 *151:35 *163:20 0.00155432
25 *151:35 *165:29 0.000377777
26 *151:35 *169:32 8.9701e-05
27 *151:35 *179:49 0.000101545
28 *151:43 *169:32 0.00130612
29 *491:DIODE *3764:DI[0] 0
30 *554:DIODE *151:10 3.36408e-05
31 *3790:A *151:10 2.42122e-05
32 *113:11 *3764:DI[0] 0
33 *117:31 *151:25 0.00267916
34 *145:78 *151:35 0.00136829
35 *146:35 *151:35 0.000627376
36 *146:39 *151:43 0.0108445
37 *148:22 *151:25 0.000292109
38 *148:32 *151:25 0.000213364
39 *148:32 *151:35 5.35746e-05
40 *148:34 *151:35 0.000606035
41 *148:34 *151:43 0.0108465
42 *150:19 *151:10 0
43 *150:19 *151:25 0
44 *150:56 *151:35 0.000189461
45 *150:71 *151:35 8.869e-05
*RES
1 *3778:X *151:10 17.7107 
2 *151:10 *532:DIODE 13.8 
3 *151:10 *151:25 31.8824 
4 *151:25 *151:35 48.8934 
5 *151:35 *151:41 6.90303 
6 *151:41 *151:43 136.884 
7 *151:43 *151:47 9.96429 
8 *151:47 *3764:DI[0] 11.6696 
9 *151:47 *459:DIODE 9.3 
*END

*D_NET *152 0.0429613
*CONN
*I *460:DIODE I *D sky130_fd_sc_hd__diode_2
*I *3764:DI[10] I *D CF_SRAM_1024x32
*I *534:DIODE I *D sky130_fd_sc_hd__diode_2
*I *3779:X O *D sky130_fd_sc_hd__clkbuf_4
*CAP
1 *460:DIODE 0.000132122
2 *3764:DI[10] 0.000444599
3 *534:DIODE 0
4 *3779:X 0.000265323
5 *152:35 0.000576721
6 *152:33 0.00118924
7 *152:31 0.00118924
8 *152:29 0.00166293
9 *152:27 0.00308727
10 *152:12 0.00168967
11 *152:12 *185:10 0
12 *152:27 *256:DIODE 0.00011333
13 *152:27 *259:DIODE 0
14 *152:27 *387:DIODE 0.000100359
15 *152:27 *392:DIODE 3.9267e-05
16 *152:27 *185:27 0
17 *152:27 *199:47 0.000199006
18 *152:27 *225:18 1.90936e-05
19 *152:27 *229:68 0.000141693
20 *152:27 *233:206 2.09177e-05
21 *152:29 *161:27 0.0015936
22 *492:DIODE *460:DIODE 0.000177821
23 *492:DIODE *3764:DI[10] 0.000750733
24 *535:DIODE *152:12 3.36408e-05
25 *537:DIODE *152:12 7.49952e-05
26 *3780:A *152:12 3.42509e-05
27 *41:9 *152:12 3.69047e-06
28 *114:7 *3764:DI[10] 0.000183291
29 *131:11 *152:33 0.0051754
30 *135:15 *152:29 0.00859468
31 *139:13 *152:33 0.0051754
32 *142:21 *152:29 0.0100763
33 *143:59 *152:27 5.04054e-05
34 *145:42 *152:27 0.000166325
*RES
1 *3779:X *152:12 17.8357 
2 *152:12 *534:DIODE 13.8 
3 *152:12 *152:27 25.9286 
4 *152:27 *152:29 95.4107 
5 *152:29 *152:31 4.5 
6 *152:31 *152:33 65.3929 
7 *152:33 *152:35 4.5 
8 *152:35 *3764:DI[10] 9.66964 
9 *152:35 *460:DIODE 11.0679 
*END

*D_NET *153 0.0456486
*CONN
*I *461:DIODE I *D sky130_fd_sc_hd__diode_2
*I *3764:DI[11] I *D CF_SRAM_1024x32
*I *536:DIODE I *D sky130_fd_sc_hd__diode_2
*I *3780:X O *D sky130_fd_sc_hd__buf_2
*CAP
1 *461:DIODE 0
2 *3764:DI[11] 0.000610611
3 *536:DIODE 0.000171957
4 *3780:X 0.000154772
5 *153:67 0.0022602
6 *153:59 0.00312576
7 *153:57 0.0020327
8 *153:49 0.00149973
9 *153:21 0.00290641
10 *153:6 0.00228992
11 *536:DIODE *538:DIODE 7.40571e-05
12 *536:DIODE *198:27 4.58194e-05
13 *153:6 *154:6 5.33005e-05
14 *153:21 *3826:A 8.02307e-05
15 *153:21 *154:6 5.52302e-05
16 *153:21 *154:19 0.00662404
17 *153:21 *156:12 9.99644e-06
18 *153:21 *160:10 0.000141729
19 *153:21 *161:12 9.90367e-05
20 *153:21 *163:14 0.000103646
21 *153:21 *164:10 0.000186662
22 *153:21 *166:10 1.39726e-05
23 *153:21 *167:6 1.39726e-05
24 *153:21 *167:33 4.35452e-05
25 *153:21 *168:14 5.33005e-05
26 *153:21 *170:14 1.02821e-05
27 *153:21 *170:33 0.00216982
28 *153:21 *170:43 0.00176583
29 *153:21 *172:10 0.0001826
30 *153:21 *174:10 0.000435832
31 *153:21 *195:44 0.000494231
32 *153:49 *3829:A 0
33 *153:49 *3830:A 9.54798e-06
34 *153:49 *3838:A 5.49489e-05
35 *153:49 *3840:A 0.000637215
36 *153:49 *170:47 0.000269616
37 *153:49 *173:49 5.25192e-06
38 *153:49 *175:26 0.000363742
39 *153:49 *201:33 0.000309162
40 *153:49 *203:37 2.09072e-05
41 *153:57 *3838:A 4.43256e-05
42 *153:57 *3840:A 9.77264e-06
43 *153:59 *172:37 4.038e-06
44 *153:59 *177:24 0.00481019
45 *153:59 *190:30 9.56491e-05
46 *153:59 *191:34 0.00107383
47 *153:59 *215:18 0.000268997
48 *153:67 *177:24 0.000500557
49 *153:67 *191:34 0.000216954
50 wbs_dat_o[0] *153:21 1.21289e-05
51 wbs_dat_o[10] *153:21 8.18783e-05
52 wbs_dat_o[14] *153:49 0.00018372
53 wbs_dat_o[15] *153:49 0
54 wbs_dat_o[17] *153:49 0.000439625
55 wbs_dat_o[18] *153:49 9.85867e-05
56 wbs_dat_o[19] *153:49 0.000155212
57 wbs_dat_o[21] *153:49 7.56007e-05
58 wbs_dat_o[21] *153:57 0.000523029
59 wbs_dat_o[23] *153:57 0.000647936
60 wbs_dat_o[26] *153:59 5.36975e-05
61 wbs_dat_o[7] *153:21 3.98462e-05
62 wbs_dat_o[9] *153:21 0.000359997
63 *493:DIODE *3764:DI[11] 0.000753688
64 *493:DIODE *153:67 5.33005e-05
65 *541:DIODE *536:DIODE 8.44271e-06
66 *548:DIODE *153:21 4.7812e-05
67 *558:DIODE *153:21 0.000117121
68 *568:DIODE *153:21 0.000131297
69 *572:DIODE *153:21 4.96113e-05
70 *3781:A *153:6 2.79421e-05
71 *3783:A *153:21 6.62783e-05
72 *3784:A *153:21 2.89114e-05
73 *3786:A *153:21 3.67257e-05
74 *3788:A *153:21 2.59355e-05
75 *3789:A *153:21 5.91367e-05
76 *3791:A *153:21 4.87953e-05
77 *3794:A *153:21 9.90431e-05
78 *3795:A *153:21 2.89114e-05
79 *3801:A *153:21 5.33433e-05
80 *43:17 *153:6 6.05161e-06
81 *43:17 *153:21 6.42095e-05
82 *45:9 *153:21 4.58194e-05
83 *47:9 *153:21 3.42509e-05
84 *48:9 *153:21 6.8529e-05
85 *51:11 *153:21 5.33334e-05
86 *52:9 *153:21 4.59075e-05
87 *53:11 *153:21 6.8377e-06
88 *54:9 *153:21 0.000311128
89 *55:15 *153:21 8.69863e-05
90 *56:13 *153:21 9.22103e-06
91 *58:17 *153:21 7.02611e-05
92 *59:13 *153:21 1.10868e-05
93 *60:13 *153:21 6.49445e-05
94 *62:13 *153:21 4.22918e-05
95 *115:7 *3764:DI[11] 0.000385083
96 *134:22 *153:59 0.00228549
97 *134:22 *153:67 0.000929505
98 *148:32 *153:49 1.38323e-05
99 *148:32 *153:57 0.000402368
*RES
1 *3780:X *153:6 11.4786 
2 *153:6 *536:DIODE 20.5857 
3 *153:6 *153:21 83.9107 
4 *153:21 *153:49 45.6607 
5 *153:49 *153:57 21.875 
6 *153:57 *153:59 62.3661 
7 *153:59 *153:67 30.3661 
8 *153:67 *3764:DI[11] 11.7411 
9 *153:67 *461:DIODE 9.3 
*END

*D_NET *154 0.0412267
*CONN
*I *462:DIODE I *D sky130_fd_sc_hd__diode_2
*I *3764:DI[12] I *D CF_SRAM_1024x32
*I *538:DIODE I *D sky130_fd_sc_hd__diode_2
*I *3781:X O *D sky130_fd_sc_hd__buf_2
*CAP
1 *462:DIODE 0
2 *3764:DI[12] 0.000618275
3 *538:DIODE 3.75815e-05
4 *3781:X 7.63369e-05
5 *154:35 0.000951427
6 *154:31 0.00136867
7 *154:29 0.0018432
8 *154:25 0.0017108
9 *154:19 0.00542609
10 *154:6 0.0046369
11 *154:19 *163:14 0.000111763
12 *154:25 *3853:A 3.97118e-05
13 *154:25 *167:41 0.00115161
14 *154:25 *198:57 4.34444e-05
15 *154:29 *166:23 0.000394718
16 *154:31 *161:29 0.00367258
17 *154:31 *167:47 0.00334465
18 *154:31 *169:32 0.000738784
19 *154:31 *182:35 0.000608213
20 wbs_dat_o[8] *154:25 0.000184482
21 *329:DIODE *154:25 0
22 *494:DIODE *3764:DI[12] 0.000707336
23 *494:DIODE *154:35 5.33005e-05
24 *536:DIODE *538:DIODE 7.40571e-05
25 *541:DIODE *538:DIODE 7.5779e-05
26 *113:19 *154:29 2.41665e-05
27 *116:7 *3764:DI[12] 0.000428473
28 *120:18 *154:29 0.00225951
29 *122:29 *154:29 0.00217612
30 *123:19 *154:29 0.00041661
31 *133:24 *154:31 0.00010224
32 *143:21 *154:25 0.000515079
33 *144:20 *154:31 1.43864e-05
34 *146:17 *154:29 0.000687844
35 *153:6 *154:6 5.33005e-05
36 *153:21 *154:6 5.52302e-05
37 *153:21 *154:19 0.00662404
*RES
1 *3781:X *154:6 10.2464 
2 *154:6 *538:DIODE 19.3357 
3 *154:6 *154:19 63.7857 
4 *154:19 *154:25 27.6429 
5 *154:25 *154:29 38.3036 
6 *154:29 *154:31 50.5179 
7 *154:31 *154:35 7.91071 
8 *154:35 *3764:DI[12] 11.7589 
9 *154:35 *462:DIODE 9.3 
*END

*D_NET *155 0.0362918
*CONN
*I *463:DIODE I *D sky130_fd_sc_hd__diode_2
*I *3764:DI[13] I *D CF_SRAM_1024x32
*I *540:DIODE I *D sky130_fd_sc_hd__diode_2
*I *3782:X O *D sky130_fd_sc_hd__buf_2
*CAP
1 *463:DIODE 0.000198729
2 *3764:DI[13] 0.000415627
3 *540:DIODE 0
4 *3782:X 0.000315048
5 *155:29 0.00132992
6 *155:23 0.00202078
7 *155:21 0.00244766
8 *155:10 0.00145749
9 *155:10 *221:10 0.000119919
10 *155:21 *395:DIODE 9.23236e-05
11 *155:21 *183:25 0
12 *155:21 *221:10 0.000181562
13 *155:21 *223:12 0.000206011
14 *155:21 *229:39 0.000159802
15 *155:21 *229:279 0
16 *155:21 *231:252 0.000228006
17 *155:21 *231:258 7.52178e-05
18 *155:23 *162:25 0.00147345
19 *155:29 *187:26 0.000985279
20 *155:29 *187:46 0.000675124
21 *155:29 *187:58 9.67412e-05
22 *155:29 *187:69 0.000812626
23 *155:29 *187:94 0.00032933
24 *384:DIODE *155:21 2.72337e-05
25 *404:DIODE *155:21 0
26 *495:DIODE *463:DIODE 0.000300412
27 *495:DIODE *3764:DI[13] 0.000122591
28 *539:DIODE *155:10 0
29 *541:DIODE *155:10 0
30 *3783:A *155:10 9.90367e-05
31 *45:9 *155:10 5.20298e-05
32 *115:15 *155:23 0.00892539
33 *117:7 *3764:DI[13] 0.000678715
34 *124:11 *155:29 0.0028991
35 *139:31 *155:21 1.94945e-05
36 *142:21 *155:23 0.00933993
37 *144:24 *155:23 0.000207189
*RES
1 *3782:X *155:10 18.8179 
2 *155:10 *540:DIODE 13.8 
3 *155:10 *155:21 24.6607 
4 *155:21 *155:23 88.4286 
5 *155:23 *155:29 45.8571 
6 *155:29 *3764:DI[13] 8.49107 
7 *155:29 *463:DIODE 12.3 
*END

*D_NET *156 0.0366013
*CONN
*I *464:DIODE I *D sky130_fd_sc_hd__diode_2
*I *3764:DI[14] I *D CF_SRAM_1024x32
*I *542:DIODE I *D sky130_fd_sc_hd__diode_2
*I *3783:X O *D sky130_fd_sc_hd__buf_2
*CAP
1 *464:DIODE 0
2 *3764:DI[14] 0.000687008
3 *542:DIODE 0
4 *3783:X 0.000227889
5 *156:33 0.000687008
6 *156:31 0.00708134
7 *156:25 0.00880748
8 *156:12 0.00195402
9 *156:12 *157:12 0.000233883
10 *156:12 *221:10 2.92836e-05
11 *156:25 *157:12 0.000142856
12 *156:25 *157:29 0.000691315
13 *156:25 *167:33 0.000137532
14 *156:25 *198:37 0.00281967
15 *156:25 *200:33 0.00102806
16 *156:31 *160:29 0
17 *156:31 *178:33 0.000527663
18 *156:31 *178:53 9.45051e-05
19 *156:31 *179:29 0.000118491
20 *156:31 *183:35 0.000286978
21 *156:31 *184:43 0.000433602
22 *156:31 *184:47 0.000265566
23 *156:31 *191:24 0.000223427
24 *496:DIODE *3764:DI[14] 0.000282166
25 *543:DIODE *156:12 6.32246e-05
26 *3784:A *156:12 2.44318e-05
27 *3798:A *156:25 5.33005e-05
28 *45:9 *156:12 2.78611e-05
29 *110:16 *156:31 0.000245397
30 *110:18 *156:31 0.000292109
31 *118:5 *3764:DI[14] 0.000252236
32 *123:19 *156:31 0
33 *125:15 *156:31 0.00253879
34 *125:39 *156:31 1.17921e-05
35 *126:21 *156:31 0.000422799
36 *126:27 *156:31 0.00284829
37 *127:19 *156:31 0.00011307
38 *141:15 *156:31 0.00265655
39 *145:58 *156:31 0.000281663
40 *153:21 *156:12 9.99644e-06
*RES
1 *3783:X *156:12 22.8179 
2 *156:12 *542:DIODE 9.3 
3 *156:12 *156:25 48.6689 
4 *156:25 *156:31 48.6879 
5 *156:31 *156:33 4.5 
6 *156:33 *3764:DI[14] 11.3839 
7 *156:33 *464:DIODE 9.3 
*END

*D_NET *157 0.0297146
*CONN
*I *465:DIODE I *D sky130_fd_sc_hd__diode_2
*I *3764:DI[15] I *D CF_SRAM_1024x32
*I *544:DIODE I *D sky130_fd_sc_hd__diode_2
*I *3784:X O *D sky130_fd_sc_hd__buf_2
*CAP
1 *465:DIODE 0.000396488
2 *3764:DI[15] 0.000463877
3 *544:DIODE 0
4 *3784:X 0.00016532
5 *157:51 0.00122612
6 *157:49 0.00256571
7 *157:33 0.00333983
8 *157:29 0.00187309
9 *157:12 0.000898528
10 *3764:DI[15] *3764:BEN[15] 0
11 *157:12 *159:8 0
12 *157:12 *200:33 9.91033e-05
13 *157:12 *221:10 0
14 *157:29 *160:29 0.000268771
15 *157:29 *161:27 0
16 *157:29 *194:24 0.000284499
17 *157:29 *200:33 0.000695536
18 *157:29 *218:31 0.000443654
19 *157:29 *222:19 4.13595e-05
20 *157:29 *230:131 7.35637e-05
21 *157:33 *172:33 0.000132088
22 *157:33 *194:24 0.00185765
23 *157:33 *197:26 0.000554647
24 *157:33 *197:44 0.00207654
25 *157:33 *203:14 0.000142856
26 *157:33 *203:27 0.00203945
27 *157:33 *204:23 0.000210612
28 *157:33 *206:35 0.00117077
29 *157:33 *218:31 8.43535e-06
30 *157:33 *227:63 0.000354098
31 *157:49 *160:29 0.00049771
32 *157:49 *201:33 0.000118712
33 *157:49 *209:14 0.000864931
34 *157:49 *230:45 6.58597e-05
35 *157:49 *230:47 7.1344e-05
36 *157:49 *230:53 7.00374e-05
37 *157:49 *232:59 0.000151898
38 *157:49 *234:185 0
39 *157:51 *3764:vpwrac 0.000186248
40 *310:DIODE *157:33 5.52302e-05
41 *497:DIODE *465:DIODE 0.000264542
42 *546:DIODE *157:12 0.000156007
43 *46:5 *157:12 3.39401e-05
44 *114:11 *157:49 0.000198703
45 *114:19 *157:33 0.000103646
46 *118:11 *465:DIODE 0.000148656
47 *118:11 *157:51 0.00135596
48 *119:5 *3764:DI[15] 0
49 *122:23 *157:49 0.000150413
50 *123:11 *465:DIODE 0.000156191
51 *123:11 *157:51 0.00141387
52 *123:19 *157:49 0.000241934
53 *125:61 *157:33 0.000494542
54 *125:61 *157:49 0.000463593
55 *156:12 *157:12 0.000233883
56 *156:25 *157:12 0.000142856
57 *156:25 *157:29 0.000691315
*RES
1 *3784:X *157:12 23.1214 
2 *157:12 *544:DIODE 9.3 
3 *157:12 *157:29 28.8929 
4 *157:29 *157:33 49.8393 
5 *157:33 *157:49 41.4901 
6 *157:49 *157:51 17.8839 
7 *157:51 *3764:DI[15] 11.3125 
8 *157:51 *465:DIODE 21.2107 
*END

*D_NET *158 0.0898753
*CONN
*I *567:DIODE I *D sky130_fd_sc_hd__diode_2
*I *424:DIODE I *D sky130_fd_sc_hd__diode_2
*I *3764:AD[8] I *D CF_SRAM_1024x32
*I *3785:X O *D sky130_fd_sc_hd__buf_4
*CAP
1 *567:DIODE 0
2 *424:DIODE 0
3 *3764:AD[8] 0.000696296
4 *3785:X 0.000275821
5 *158:26 0.00180135
6 *158:22 0.00589416
7 *158:20 0.00478911
8 *158:18 0.0129035
9 *158:16 0.0130214
10 *158:10 0.000393749
11 *3764:AD[8] *3764:AD[9] 0.000218992
12 *158:10 *169:8 0.000111504
13 *158:16 *169:22 1.90936e-05
14 *158:18 *169:22 0.0010647
15 *158:22 *160:31 0.0133893
16 *158:22 *166:27 0
17 *158:22 *168:61 0
18 *158:22 *190:30 4.10836e-05
19 wbs_dat_o[24] *158:22 7.69616e-05
20 *3764:AD[7] *3764:AD[8] 0
21 *3796:A *158:10 5.52302e-05
22 *8:5 *158:16 0
23 *149:23 *158:18 0.0199916
24 *149:27 *158:22 0.0151315
*RES
1 *3785:X *158:10 14.4964 
2 *158:10 *158:16 10.6429 
3 *158:16 *158:18 189.875 
4 *158:18 *158:20 4.5 
5 *158:20 *158:22 195.321 
6 *158:22 *158:26 15.7143 
7 *158:26 *3764:AD[8] 12.0045 
8 *158:26 *424:DIODE 9.3 
9 *158:10 *567:DIODE 9.3 
*END

*D_NET *159 0.0756083
*CONN
*I *466:DIODE I *D sky130_fd_sc_hd__diode_2
*I *3764:DI[16] I *D CF_SRAM_1024x32
*I *547:DIODE I *D sky130_fd_sc_hd__diode_2
*I *3786:X O *D sky130_fd_sc_hd__clkbuf_4
*CAP
1 *466:DIODE 0
2 *3764:DI[16] 0.000716396
3 *547:DIODE 6.8128e-05
4 *3786:X 0.000230609
5 *159:39 0.00111274
6 *159:35 0.00404545
7 *159:33 0.00376406
8 *159:27 0.00461776
9 *159:8 0.00480155
10 *547:DIODE *200:33 9.77118e-05
11 *159:8 *160:10 0
12 *159:27 *386:DIODE 0
13 *159:27 *3748:A_N 0.000180387
14 *159:27 *3748:B 0.000179795
15 *159:27 *3749:A_N 9.20464e-06
16 *159:27 *160:29 0.00928115
17 *159:27 *161:27 0.000158606
18 *159:27 *162:25 0.00867143
19 *159:27 *182:35 1.5929e-05
20 *159:27 *195:30 0
21 *159:27 *200:23 0
22 *159:27 *229:27 0
23 *159:27 *229:279 0
24 *159:27 *232:131 1.90114e-05
25 *159:27 *233:297 0.000108511
26 *159:33 *185:29 0.000218685
27 *159:35 *161:29 0.0151772
28 *159:35 *169:32 0.00276363
29 *159:35 *171:35 0.000181138
30 *498:DIODE *3764:DI[16] 7.57028e-05
31 *546:DIODE *159:8 0
32 *3749:D *159:27 3.43988e-06
33 *119:13 *159:27 0.00136643
34 *120:10 *3764:DI[16] 0
35 *132:11 *159:27 0.000509328
36 *133:24 *159:35 0.0151772
37 *135:21 *159:27 0
38 *144:20 *159:27 0.000473553
39 *144:24 *159:27 0.00157505
40 *145:56 *159:27 8.51637e-06
41 *157:12 *159:8 0
*RES
1 *3786:X *159:8 16.9607 
2 *159:8 *547:DIODE 14.7464 
3 *159:8 *159:27 48.1834 
4 *159:27 *159:33 11.1786 
5 *159:33 *159:35 191.679 
6 *159:35 *159:39 8.73214 
7 *159:39 *3764:DI[16] 11.8929 
8 *159:39 *466:DIODE 9.3 
*END

*D_NET *160 0.0754874
*CONN
*I *467:DIODE I *D sky130_fd_sc_hd__diode_2
*I *3764:DI[17] I *D CF_SRAM_1024x32
*I *549:DIODE I *D sky130_fd_sc_hd__diode_2
*I *3787:X O *D sky130_fd_sc_hd__clkbuf_4
*CAP
1 *467:DIODE 0
2 *3764:DI[17] 0.000645882
3 *549:DIODE 0
4 *3787:X 0.000253835
5 *160:35 0.00166316
6 *160:31 0.00617268
7 *160:29 0.0114212
8 *160:10 0.00651961
9 *160:10 *161:12 0
10 *160:29 *161:27 0
11 *160:29 *162:25 0.000426514
12 *160:29 *166:23 0.000275502
13 *160:29 *178:53 0
14 *160:29 *181:23 0.00136809
15 *160:29 *218:31 1.67577e-05
16 *160:29 *230:131 4.67962e-05
17 *160:31 *162:27 0.0161214
18 *160:31 *166:27 3.02162e-05
19 *160:31 *172:39 0
20 *499:DIODE *3764:DI[17] 0.000118793
21 *548:DIODE *160:10 2.2351e-05
22 *550:DIODE *160:10 2.8824e-05
23 *3764:CLKin *3764:DI[17] 0
24 *48:9 *160:10 9.83442e-05
25 *113:19 *160:29 0.000211357
26 *113:25 *160:29 0.000752276
27 *116:15 *160:29 0.0014801
28 *118:13 *160:29 0.00137585
29 *121:7 *3764:DI[17] 0.000136004
30 *123:19 *160:29 0.00115487
31 *124:15 *160:29 0.00147345
32 *124:21 *160:29 0
33 *126:27 *160:29 0
34 *149:27 *160:31 9.49066e-05
35 *153:21 *160:10 0.000141729
36 *156:31 *160:29 0
37 *157:29 *160:29 0.000268771
38 *157:49 *160:29 0.00049771
39 *158:22 *160:31 0.0133893
40 *159:8 *160:10 0
41 *159:27 *160:29 0.00928115
*RES
1 *3787:X *160:10 18.3179 
2 *160:10 *549:DIODE 13.8 
3 *160:10 *160:29 43.0552 
4 *160:29 *160:31 208.527 
5 *160:31 *160:35 15.3036 
6 *160:35 *3764:DI[17] 11.875 
7 *160:35 *467:DIODE 9.3 
*END

*D_NET *161 0.0713289
*CONN
*I *468:DIODE I *D sky130_fd_sc_hd__diode_2
*I *3764:DI[18] I *D CF_SRAM_1024x32
*I *551:DIODE I *D sky130_fd_sc_hd__diode_2
*I *3788:X O *D sky130_fd_sc_hd__clkbuf_4
*CAP
1 *468:DIODE 0
2 *3764:DI[18] 0.000748734
3 *551:DIODE 0
4 *3788:X 0.000287712
5 *161:33 0.00109522
6 *161:29 0.00521119
7 *161:27 0.00843848
8 *161:12 0.00386149
9 *161:12 *162:10 0
10 *161:27 *368:DIODE 3.84059e-05
11 *161:27 *162:25 0.00883331
12 *161:27 *165:29 0.00836003
13 *161:29 *167:47 0.00718707
14 *161:29 *169:32 0.00298972
15 *161:29 *171:35 0.000592778
16 *500:DIODE *3764:DI[18] 0
17 *552:DIODE *161:12 0
18 *556:DIODE *161:12 0
19 *3789:A *161:12 5.62995e-05
20 *51:11 *161:12 0
21 *124:21 *161:27 0.000329907
22 *133:24 *161:29 0.00101794
23 *135:15 *161:27 0.000109473
24 *142:21 *161:27 0.00147007
25 *152:29 *161:27 0.0015936
26 *153:21 *161:12 9.90367e-05
27 *154:31 *161:29 0.00367258
28 *157:29 *161:27 0
29 *159:27 *161:27 0.000158606
30 *159:35 *161:29 0.0151772
31 *160:10 *161:12 0
32 *160:29 *161:27 0
*RES
1 *3788:X *161:12 18.4429 
2 *161:12 *551:DIODE 13.8 
3 *161:12 *161:27 41.6649 
4 *161:27 *161:29 216.42 
5 *161:29 *161:33 8.32143 
6 *161:33 *3764:DI[18] 11.8571 
7 *161:33 *468:DIODE 9.3 
*END

*D_NET *162 0.0772029
*CONN
*I *469:DIODE I *D sky130_fd_sc_hd__diode_2
*I *3764:DI[19] I *D CF_SRAM_1024x32
*I *553:DIODE I *D sky130_fd_sc_hd__diode_2
*I *3789:X O *D sky130_fd_sc_hd__clkbuf_4
*CAP
1 *469:DIODE 0
2 *3764:DI[19] 0.000734681
3 *553:DIODE 0
4 *3789:X 0.000308691
5 *162:31 0.00169462
6 *162:27 0.00624105
7 *162:25 0.00914296
8 *162:10 0.00417055
9 *162:10 *164:10 0
10 *162:25 *164:21 0
11 *162:25 *165:29 9.94185e-05
12 *162:25 *195:30 2.84419e-05
13 *162:25 *197:26 0.000161458
14 *162:27 *164:27 0.0175049
15 *162:27 *166:27 6.28219e-05
16 *162:27 *172:39 0
17 *501:DIODE *3764:DI[19] 0
18 *556:DIODE *162:10 0.00014072
19 *52:9 *162:10 1.38167e-05
20 *115:15 *162:25 0.00136643
21 *123:7 *3764:DI[19] 0
22 *143:59 *162:25 6.20855e-06
23 *155:23 *162:25 0.00147345
24 *159:27 *162:25 0.00867143
25 *160:29 *162:25 0.000426514
26 *160:31 *162:27 0.0161214
27 *161:12 *162:10 0
28 *161:27 *162:25 0.00883331
*RES
1 *3789:X *162:10 18.5143 
2 *162:10 *553:DIODE 13.8 
3 *162:10 *162:25 41.7784 
4 *162:25 *162:27 226.741 
5 *162:27 *162:31 14.8929 
6 *162:31 *3764:DI[19] 11.8393 
7 *162:31 *469:DIODE 9.3 
*END

*D_NET *163 0.0756471
*CONN
*I *555:DIODE I *D sky130_fd_sc_hd__diode_2
*I *470:DIODE I *D sky130_fd_sc_hd__diode_2
*I *3764:DI[1] I *D CF_SRAM_1024x32
*I *3790:X O *D sky130_fd_sc_hd__clkbuf_4
*CAP
1 *555:DIODE 0.000138727
2 *470:DIODE 0
3 *3764:DI[1] 0.000769958
4 *3790:X 0
5 *163:24 0.00137914
6 *163:20 0.00347218
7 *163:18 0.00380335
8 *163:14 0.00576867
9 *163:6 0.00496704
10 *163:14 *176:30 0.000738906
11 *163:14 *180:27 0.0142382
12 *163:14 *191:24 0.000956993
13 *163:14 *202:16 0.0121567
14 *163:18 *3839:A 0.000499894
15 *163:18 *173:49 0
16 *163:18 *173:59 0.000378817
17 *163:18 *207:28 0.000483926
18 *163:20 *173:59 1.09232e-05
19 *163:20 *173:61 2.18517e-05
20 wbs_dat_o[22] *163:18 0
21 *502:DIODE *3764:DI[1] 0
22 *554:DIODE *555:DIODE 0
23 *578:DIODE *555:DIODE 9.97008e-05
24 *578:DIODE *163:14 2.11419e-05
25 *124:7 *3764:DI[1] 0
26 *145:78 *163:18 0.00077499
27 *145:78 *163:20 1.44868e-05
28 *145:82 *163:20 0.0102066
29 *146:35 *163:18 0.000625662
30 *146:35 *163:20 0.00155011
31 *146:39 *163:20 0.0102686
32 *150:56 *163:18 0.000187937
33 *150:71 *163:18 9.49984e-05
34 *151:10 *555:DIODE 2.8082e-05
35 *151:35 *163:18 0.000219811
36 *151:35 *163:20 0.00155432
37 *153:21 *163:14 0.000103646
38 *154:19 *163:14 0.000111763
*RES
1 *3790:X *163:6 13.8 
2 *163:6 *163:14 29.9889 
3 *163:14 *163:18 27.375 
4 *163:18 *163:20 149.634 
5 *163:20 *163:24 10.7857 
6 *163:24 *3764:DI[1] 11.6875 
7 *163:24 *470:DIODE 9.3 
8 *163:6 *555:DIODE 16.3893 
*END

*D_NET *164 0.0709666
*CONN
*I *471:DIODE I *D sky130_fd_sc_hd__diode_2
*I *3764:DI[20] I *D CF_SRAM_1024x32
*I *557:DIODE I *D sky130_fd_sc_hd__diode_2
*I *3791:X O *D sky130_fd_sc_hd__buf_4
*CAP
1 *471:DIODE 0
2 *3764:DI[20] 0.00066769
3 *557:DIODE 0
4 *3791:X 0.000250434
5 *164:46 6.52908e-06
6 *164:37 0.00143099
7 *164:27 0.00597998
8 *164:25 0.00521016
9 *164:23 0.00280507
10 *164:21 0.00433813
11 *164:10 0.00178349
12 *164:10 *165:10 0
13 *164:21 *165:29 0
14 *164:21 *199:55 7.60103e-05
15 *164:23 *165:29 0.00148184
16 *164:23 *167:45 0
17 *164:27 *166:27 0.0181709
18 *164:37 *188:103 0.000103253
19 *558:DIODE *164:10 5.71472e-05
20 *52:9 *164:10 0.000144773
21 *125:11 *3764:DI[20] 0.00020581
22 *128:17 *164:37 5.10822e-05
23 *128:29 *164:23 0.000406027
24 *135:15 *164:23 0.00767587
25 *142:21 *164:23 7.8428e-05
26 *143:21 *164:23 0.00235133
27 *153:21 *164:10 0.000186662
28 *162:10 *164:10 0
29 *162:25 *164:21 0
30 *162:27 *164:27 0.0175049
*RES
1 *3791:X *164:10 18.7286 
2 *164:10 *557:DIODE 13.8 
3 *164:10 *164:21 25.875 
4 *164:21 *164:23 83.9107 
5 *164:23 *164:25 4.5 
6 *164:25 *164:27 233.571 
7 *164:27 *164:37 24.8214 
8 *164:37 *3764:DI[20] 12.4821 
9 *3764:DI[20] *164:46 0.125 
10 *164:37 *471:DIODE 9.3 
*END

*D_NET *165 0.0718861
*CONN
*I *472:DIODE I *D sky130_fd_sc_hd__diode_2
*I *3764:DI[21] I *D CF_SRAM_1024x32
*I *559:DIODE I *D sky130_fd_sc_hd__diode_2
*I *3792:X O *D sky130_fd_sc_hd__buf_4
*CAP
1 *472:DIODE 0
2 *3764:DI[21] 0.000692951
3 *559:DIODE 4.00796e-05
4 *3792:X 0.000283513
5 *165:41 0.0012252
6 *165:37 0.00572981
7 *165:35 0.0053125
8 *165:29 0.00447035
9 *165:10 0.004679
10 *559:DIODE *200:33 5.47047e-05
11 *165:29 *3764:vpwrac 0
12 *165:35 *185:29 0.000218685
13 *165:37 *170:49 0.00349307
14 *165:37 *173:61 0.0190647
15 *558:DIODE *165:10 9.90367e-05
16 *560:DIODE *165:10 0
17 *53:11 *165:10 0.00010096
18 *54:9 *165:10 2.22674e-05
19 *110:10 *165:37 0.0074273
20 *110:42 *165:37 0.00219827
21 *121:19 *165:29 0.0047009
22 *126:11 *3764:DI[21] 0
23 *135:15 *165:29 0.00137421
24 *145:56 *165:29 0
25 *148:34 *165:29 0.000379499
26 *151:35 *165:29 0.000377777
27 *161:27 *165:29 0.00836003
28 *162:25 *165:29 9.94185e-05
29 *164:10 *165:10 0
30 *164:21 *165:29 0
31 *164:23 *165:29 0.00148184
*RES
1 *3792:X *165:10 18.5143 
2 *165:10 *559:DIODE 14.3357 
3 *165:10 *165:29 46.2376 
4 *165:29 *165:35 11.1786 
5 *165:35 *165:37 240.554 
6 *165:37 *165:41 12.0179 
7 *165:41 *3764:DI[21] 12.1071 
8 *165:41 *472:DIODE 9.3 
*END

*D_NET *166 0.0760624
*CONN
*I *473:DIODE I *D sky130_fd_sc_hd__diode_2
*I *3764:DI[22] I *D CF_SRAM_1024x32
*I *561:DIODE I *D sky130_fd_sc_hd__diode_2
*I *3793:X O *D sky130_fd_sc_hd__buf_4
*CAP
1 *473:DIODE 0
2 *3764:DI[22] 0.000639169
3 *561:DIODE 0
4 *3793:X 0.00032692
5 *166:31 0.00149554
6 *166:27 0.00688423
7 *166:25 0.00602786
8 *166:23 0.00560408
9 *166:21 0.00681967
10 *166:10 0.00154251
11 *166:21 *206:35 7.29156e-05
12 *166:27 *168:61 0.0200996
13 *166:27 *172:39 0
14 *505:DIODE *3764:DI[22] 0.000441547
15 *505:DIODE *166:31 5.71472e-05
16 *562:DIODE *166:10 3.10309e-05
17 *564:DIODE *166:10 0
18 *3794:A *166:10 4.88637e-05
19 *3798:A *166:10 0
20 *54:9 *166:10 3.13687e-05
21 *55:15 *166:10 0.000144773
22 *113:19 *166:23 0.00620058
23 *123:19 *166:23 0.000618067
24 *127:9 *3764:DI[22] 0
25 *146:17 *166:23 2.82833e-05
26 *153:21 *166:10 1.39726e-05
27 *154:29 *166:23 0.000394718
28 *158:22 *166:27 0
29 *160:29 *166:23 0.000275502
30 *160:31 *166:27 3.02162e-05
31 *162:27 *166:27 6.28219e-05
32 *164:27 *166:27 0.0181709
*RES
1 *3793:X *166:10 19.3357 
2 *166:10 *561:DIODE 13.8 
3 *166:10 *166:21 21.625 
4 *166:21 *166:23 76.9286 
5 *166:23 *166:25 4.5 
6 *166:25 *166:27 258.464 
7 *166:27 *166:31 14.0714 
8 *166:31 *3764:DI[22] 11.7857 
9 *166:31 *473:DIODE 9.3 
*END

*D_NET *167 0.0642259
*CONN
*I *474:DIODE I *D sky130_fd_sc_hd__diode_2
*I *3764:DI[23] I *D CF_SRAM_1024x32
*I *563:DIODE I *D sky130_fd_sc_hd__diode_2
*I *3794:X O *D sky130_fd_sc_hd__buf_4
*CAP
1 *474:DIODE 0
2 *3764:DI[23] 0.000681254
3 *563:DIODE 0.000112069
4 *3794:X 4.23466e-05
5 *167:51 0.000888104
6 *167:47 0.00760031
7 *167:45 0.00921363
8 *167:41 0.00427687
9 *167:33 0.00414614
10 *167:6 0.00184385
11 *167:33 *581:DIODE 9.55638e-05
12 *167:33 *168:14 0.000255496
13 *167:33 *173:49 7.14469e-05
14 *167:33 *223:20 0.000210177
15 *167:33 *225:20 0.00148483
16 *167:41 *3851:A 1.38323e-05
17 *167:41 *168:41 8.83452e-05
18 *167:41 *198:57 0.000569394
19 *167:41 *200:57 2.1806e-05
20 *167:41 *207:10 0.000114847
21 *167:41 *207:20 0.000219561
22 *167:41 *222:29 0.000739278
23 *167:41 *227:81 4.22135e-06
24 *167:45 *3764:vpwrac 0.000424268
25 *167:45 *185:29 0.00109443
26 *167:47 *487:DIODE 6.5185e-05
27 *167:47 *171:35 0.00466655
28 *167:47 *182:37 0.00120435
29 wbs_dat_o[2] *167:33 1.5702e-05
30 *564:DIODE *563:DIODE 6.32246e-05
31 *3764:R_WB *167:47 0.000103974
32 *3795:A *167:6 4.38128e-05
33 *55:15 *167:6 0.00010096
34 *56:13 *167:6 0.000144773
35 *56:13 *167:33 0.000172309
36 *57:5 *563:DIODE 7.44021e-05
37 *57:5 *167:33 1.95625e-05
38 *112:10 *167:47 0.00335922
39 *125:61 *167:41 8.44271e-06
40 *128:9 *3764:DI[23] 0
41 *128:29 *167:45 0
42 *132:11 *167:47 0.00227256
43 *133:24 *167:47 0
44 *143:21 *167:41 0.000161625
45 *143:21 *167:45 0
46 *144:20 *167:47 0.00565885
47 *153:21 *167:6 1.39726e-05
48 *153:21 *167:33 4.35452e-05
49 *154:25 *167:41 0.00115161
50 *154:31 *167:47 0.00334465
51 *156:25 *167:33 0.000137532
52 *161:29 *167:47 0.00718707
53 *164:23 *167:45 0
*RES
1 *3794:X *167:6 11.0679 
2 *167:6 *563:DIODE 20.55 
3 *167:6 *167:33 43.2679 
4 *167:33 *167:41 48.3214 
5 *167:41 *167:45 38.3036 
6 *167:45 *167:47 261.196 
7 *167:47 *167:51 7.5 
8 *167:51 *3764:DI[23] 12.0714 
9 *167:51 *474:DIODE 9.3 
*END

*D_NET *168 0.080327
*CONN
*I *475:DIODE I *D sky130_fd_sc_hd__diode_2
*I *3764:DI[24] I *D CF_SRAM_1024x32
*I *565:DIODE I *D sky130_fd_sc_hd__diode_2
*I *3795:X O *D sky130_fd_sc_hd__buf_4
*CAP
1 *475:DIODE 0
2 *3764:DI[24] 0.000578439
3 *565:DIODE 0
4 *3795:X 0.000451601
5 *168:65 0.00137871
6 *168:61 0.00805715
7 *168:59 0.00902613
8 *168:55 0.00280018
9 *168:41 0.0030583
10 *168:14 0.00247898
11 *168:14 *200:33 0.000383758
12 *168:41 *583:DIODE 0.000225337
13 *168:41 *3836:A 8.92418e-05
14 *168:41 *3852:A 1.38323e-05
15 *168:41 *175:14 0.000285127
16 *168:41 *197:44 0.000368908
17 *168:41 *197:52 0.000225609
18 *168:41 *198:37 1.10868e-05
19 *168:41 *198:57 0.000666041
20 *168:41 *200:33 0.00100856
21 *168:41 *200:57 3.8895e-05
22 *168:41 *222:29 0.000699806
23 *168:41 *223:28 1.24368e-05
24 *168:55 *626:DIODE 8.6229e-06
25 *168:55 *3856:A 3.47641e-06
26 *168:55 *227:81 0.000194465
27 *168:59 *3829:A 0.000131163
28 *168:59 *170:47 0.00129943
29 *168:59 *173:49 0.000103646
30 *168:59 *198:59 0.000183726
31 *168:59 *200:59 1.51489e-05
32 *168:61 *170:49 0.0229734
33 *168:61 *172:39 0
34 *168:61 *190:30 2.52911e-05
35 *168:61 *212:18 1.0033e-05
36 wbs_dat_o[13] *168:55 0.00025977
37 wbs_dat_o[14] *168:55 4.81246e-05
38 wbs_dat_o[15] *168:59 0.000857081
39 wbs_dat_o[17] *168:59 6.8377e-06
40 wbs_dat_o[1] *168:41 0.000193759
41 wbs_dat_o[22] *168:59 2.12005e-05
42 wbs_dat_o[24] *168:61 1.6271e-05
43 wbs_dat_o[5] *168:41 0.000598105
44 wbs_dat_o[8] *168:55 0.000434603
45 *507:DIODE *3764:DI[24] 0.000287754
46 *507:DIODE *168:65 3.18676e-05
47 *3798:A *168:14 7.72906e-05
48 *57:5 *168:14 0.000117662
49 *129:9 *3764:DI[24] 7.33638e-05
50 *153:21 *168:14 5.33005e-05
51 *158:22 *168:61 0
52 *166:27 *168:61 0.0200996
53 *167:33 *168:14 0.000255496
54 *167:41 *168:41 8.83452e-05
*RES
1 *3795:X *168:14 25.8179 
2 *168:14 *565:DIODE 9.3 
3 *168:14 *168:41 46.9464 
4 *168:41 *168:55 31.6786 
5 *168:55 *168:59 29.2679 
6 *168:59 *168:61 296.411 
7 *168:61 *168:65 13.6607 
8 *168:65 *3764:DI[24] 11.75 
9 *168:65 *475:DIODE 9.3 
*END

*D_NET *169 0.0979982
*CONN
*I *589:DIODE I *D sky130_fd_sc_hd__diode_2
*I *425:DIODE I *D sky130_fd_sc_hd__diode_2
*I *3764:AD[9] I *D CF_SRAM_1024x32
*I *3796:X O *D sky130_fd_sc_hd__buf_4
*CAP
1 *589:DIODE 0
2 *425:DIODE 0
3 *3764:AD[9] 0.000753201
4 *3796:X 0.000145096
5 *169:32 0.00866551
6 *169:22 0.0226423
7 *169:8 0.0148751
8 *3764:AD[9] *3764:AD[3] 0
9 *169:22 *173:49 0.00139616
10 *169:22 *176:30 0.00284783
11 *169:22 *191:24 0.00118216
12 *169:22 *193:20 0.00012835
13 *169:22 *194:34 0.000351788
14 *169:22 *202:16 0.0112616
15 *169:22 *221:12 0.00152182
16 *169:22 *226:27 0.000657143
17 *169:22 *235:14 0.000728625
18 *169:32 *171:35 0.0159481
19 *3764:AD[8] *3764:AD[9] 0.000218992
20 *3:15 *169:22 0
21 *8:5 *169:22 0
22 *128:19 *3764:AD[9] 0.000118248
23 *128:19 *169:32 1.24469e-05
24 *132:11 *3764:AD[9] 5.02726e-05
25 *132:11 *169:32 1.01912e-05
26 *133:24 *169:32 0.00274415
27 *145:78 *169:32 0.000207159
28 *148:34 *169:32 0.00151786
29 *149:23 *169:22 0.000930792
30 *151:35 *169:32 8.9701e-05
31 *151:43 *169:32 0.00130612
32 *154:31 *169:32 0.000738784
33 *158:10 *169:8 0.000111504
34 *158:16 *169:22 1.90936e-05
35 *158:18 *169:22 0.0010647
36 *159:35 *169:32 0.00276363
37 *161:29 *169:32 0.00298972
*RES
1 *3796:X *169:8 11.4964 
2 *169:8 *169:22 43.9124 
3 *169:22 *169:32 41.9974 
4 *169:32 *3764:AD[9] 18.3705 
5 *169:32 *425:DIODE 13.8 
6 *169:8 *589:DIODE 9.3 
*END

*D_NET *170 0.0734537
*CONN
*I *476:DIODE I *D sky130_fd_sc_hd__diode_2
*I *3764:DI[25] I *D CF_SRAM_1024x32
*I *569:DIODE I *D sky130_fd_sc_hd__diode_2
*I *3797:X O *D sky130_fd_sc_hd__buf_4
*CAP
1 *476:DIODE 0
2 *3764:DI[25] 0.000511823
3 *569:DIODE 0
4 *3797:X 0.000324939
5 *170:53 0.00126956
6 *170:49 0.00909698
7 *170:47 0.00860997
8 *170:43 0.00211255
9 *170:33 0.0026941
10 *170:14 0.00117722
11 *170:14 *171:33 3.13843e-05
12 *170:14 *194:24 8.54626e-05
13 *170:14 *198:37 0.000139637
14 *170:14 *200:33 7.27365e-05
15 *170:33 *581:DIODE 5.61616e-05
16 *170:33 *623:DIODE 0.000144498
17 *170:33 *3850:A 0.00018372
18 *170:33 *174:10 0.000116941
19 *170:33 *174:41 5.57405e-05
20 *170:33 *176:12 0.000104707
21 *170:33 *194:34 5.49544e-05
22 *170:33 *198:37 0.00106419
23 *170:33 *200:33 0.000625209
24 *170:33 *202:16 0.000213364
25 *170:43 *629:DIODE 0.000216755
26 *170:43 *201:33 0.000170427
27 *170:47 *203:37 8.8424e-05
28 *170:49 *173:59 5.43216e-05
29 *170:49 *173:61 0
30 *170:49 *184:59 0.00708549
31 *170:49 *212:18 0.000618637
32 *170:49 *216:16 0.00030192
33 wbs_dat_o[0] *170:33 9.6087e-05
34 wbs_dat_o[10] *170:43 9.22103e-06
35 wbs_dat_o[17] *170:47 2.94004e-05
36 wbs_dat_o[18] *170:43 2.11628e-05
37 wbs_dat_o[19] *170:43 2.11628e-05
38 wbs_dat_o[22] *170:47 0.000391597
39 wbs_dat_o[3] *170:33 0.000421179
40 wbs_dat_o[7] *170:33 0.000229536
41 wbs_dat_o[9] *170:33 8.6229e-06
42 *508:DIODE *3764:DI[25] 0.000888458
43 *508:DIODE *170:53 3.18676e-05
44 *568:DIODE *170:14 0.000136958
45 *3804:A *170:33 0.000137983
46 *58:17 *170:14 8.28647e-05
47 *59:13 *170:14 8.6229e-06
48 *110:10 *170:49 0.000580912
49 *110:42 *170:49 0.00109475
50 *130:9 *3764:DI[25] 0
51 *153:21 *170:14 1.02821e-05
52 *153:21 *170:33 0.00216982
53 *153:21 *170:43 0.00176583
54 *153:49 *170:47 0.000269616
55 *165:37 *170:49 0.00349307
56 *168:59 *170:47 0.00129943
57 *168:61 *170:49 0.0229734
*RES
1 *3797:X *170:14 24.6929 
2 *170:14 *569:DIODE 9.3 
3 *170:14 *170:33 47.5357 
4 *170:33 *170:43 38.7857 
5 *170:43 *170:47 16.9464 
6 *170:47 *170:49 305.821 
7 *170:49 *170:53 13.25 
8 *170:53 *3764:DI[25] 11.7321 
9 *170:53 *476:DIODE 9.3 
*END

*D_NET *171 0.0857914
*CONN
*I *477:DIODE I *D sky130_fd_sc_hd__diode_2
*I *3764:DI[26] I *D CF_SRAM_1024x32
*I *571:DIODE I *D sky130_fd_sc_hd__diode_2
*I *3798:X O *D sky130_fd_sc_hd__buf_4
*CAP
1 *477:DIODE 0
2 *3764:DI[26] 0.000622982
3 *571:DIODE 0
4 *3798:X 6.74604e-05
5 *171:45 0.000878938
6 *171:35 0.0102997
7 *171:33 0.0133084
8 *171:6 0.00333211
9 *171:6 *198:37 0.000175892
10 *171:6 *200:33 8.55871e-05
11 *171:33 *173:49 0.000317836
12 *171:33 *177:22 0.000142268
13 *171:33 *180:27 0.00120101
14 *171:33 *191:24 0.000795913
15 *171:33 *198:37 4.08637e-05
16 *171:33 *200:33 2.59355e-05
17 *171:35 *182:35 0.00025662
18 *171:35 *182:37 0.00145158
19 *509:DIODE *3764:DI[26] 0.000271526
20 *112:10 *171:35 0.00118243
21 *117:31 *171:33 2.92755e-05
22 *126:21 *171:35 0.0118257
23 *128:17 *171:35 0.000147837
24 *131:9 *3764:DI[26] 7.97349e-05
25 *132:11 *171:35 0.00498124
26 *133:24 *171:35 0.00127416
27 *141:31 *171:33 0.00496361
28 *144:20 *171:35 0.00103878
29 *151:25 *171:33 0.00557404
30 *159:35 *171:35 0.000181138
31 *161:29 *171:35 0.000592778
32 *167:47 *171:35 0.00466655
33 *169:32 *171:35 0.0159481
34 *170:14 *171:33 3.13843e-05
*RES
1 *3798:X *171:6 11.0679 
2 *171:6 *571:DIODE 9.3 
3 *171:6 *171:33 31.4835 
4 *171:33 *171:35 54.6986 
5 *171:35 *171:45 12.0402 
6 *171:45 *3764:DI[26] 11.7143 
7 *171:45 *477:DIODE 9.3 
*END

*D_NET *172 0.0737112
*CONN
*I *478:DIODE I *D sky130_fd_sc_hd__diode_2
*I *3764:DI[27] I *D CF_SRAM_1024x32
*I *573:DIODE I *D sky130_fd_sc_hd__diode_2
*I *3799:X O *D sky130_fd_sc_hd__buf_4
*CAP
1 *478:DIODE 0
2 *3764:DI[27] 0.000667044
3 *573:DIODE 0
4 *3799:X 0.000205698
5 *172:43 0.00147832
6 *172:39 0.00965933
7 *172:37 0.00987211
8 *172:33 0.00453341
9 *172:10 0.00371504
10 *172:10 *173:12 0
11 *172:10 *194:24 0
12 *172:33 *173:49 0
13 *172:33 *177:22 0.00684788
14 *172:33 *191:24 0.000239248
15 *172:33 *194:24 0
16 *172:33 *203:27 0.000122494
17 *172:33 *206:35 8.58848e-05
18 *172:33 *226:27 0
19 *172:33 *228:39 2.11628e-05
20 *172:33 *232:29 0
21 *172:37 *3843:A 0.000325036
22 *172:37 *175:30 0.00149996
23 *172:37 *190:30 1.01417e-05
24 *172:37 *191:34 0.000387281
25 *172:37 *215:18 0.000374831
26 *172:39 *175:30 0.00932068
27 *172:39 *191:34 0.0015567
28 *510:DIODE *172:43 9.77072e-05
29 *574:DIODE *172:10 2.65008e-05
30 *576:DIODE *172:10 2.65008e-05
31 *3744:D *172:37 0.000137475
32 *3800:A *172:10 9.83442e-05
33 *59:13 *172:10 5.49489e-05
34 *60:13 *172:10 2.36643e-05
35 *114:19 *172:33 0.00375534
36 *132:9 *3764:DI[27] 6.38358e-05
37 *134:22 *172:37 0.00288382
38 *134:22 *172:39 0.011854
39 *138:39 *172:33 0.000572722
40 *139:31 *172:33 0.00135736
41 *143:41 *172:33 0.000348613
42 *149:27 *172:39 0.00114878
43 *150:97 *172:37 2.06112e-05
44 *153:21 *172:10 0.0001826
45 *153:59 *172:37 4.038e-06
46 *157:33 *172:33 0.000132088
47 *160:31 *172:39 0
48 *162:27 *172:39 0
49 *166:27 *172:39 0
50 *168:61 *172:39 0
*RES
1 *3799:X *172:10 18.1214 
2 *172:10 *573:DIODE 13.8 
3 *172:10 *172:33 25.6514 
4 *172:33 *172:37 42.4464 
5 *172:37 *172:39 278.152 
6 *172:39 *172:43 16.9464 
7 *172:43 *3764:DI[27] 12.25 
8 *172:43 *478:DIODE 9.3 
*END

*D_NET *173 0.079794
*CONN
*I *479:DIODE I *D sky130_fd_sc_hd__diode_2
*I *3764:DI[28] I *D CF_SRAM_1024x32
*I *575:DIODE I *D sky130_fd_sc_hd__diode_2
*I *3800:X O *D sky130_fd_sc_hd__buf_4
*CAP
1 *479:DIODE 0
2 *3764:DI[28] 0.000528944
3 *575:DIODE 0
4 *3800:X 0.000320915
5 *173:65 0.000852038
6 *173:61 0.00981411
7 *173:59 0.0103764
8 *173:49 0.00518875
9 *173:12 0.00462429
10 *173:12 *226:27 0.000251253
11 *173:49 *581:DIODE 0
12 *173:49 *176:30 0.000118028
13 *173:49 *180:27 0.00269161
14 *173:49 *191:24 0.000336706
15 *173:49 *202:16 0.00261794
16 *173:49 *206:43 0.000103245
17 *173:49 *218:43 2.69001e-05
18 *173:49 *226:27 0.000232141
19 *173:59 *177:22 0.000279852
20 *173:59 *191:24 0.000117609
21 *173:59 *207:28 8.78064e-05
22 *173:59 *212:18 0.000173706
23 *173:59 *213:16 9.07498e-05
24 *173:59 *216:16 0.00014754
25 wbs_dat_o[11] *173:49 0.000180119
26 wbs_dat_o[1] *173:49 0.000105064
27 wbs_dat_o[21] *173:49 0.000259368
28 wbs_dat_o[22] *173:49 0
29 wbs_dat_o[2] *173:49 0
30 *576:DIODE *173:12 3.33467e-05
31 *3801:A *173:12 1.54142e-05
32 *60:13 *173:12 4.19409e-05
33 *62:13 *173:12 0.000110738
34 *110:10 *173:59 0.000876122
35 *110:10 *173:61 3.34639e-05
36 *117:31 *173:49 0.00063578
37 *133:13 *3764:DI[28] 0.000548515
38 *133:13 *173:65 8.76257e-05
39 *133:22 *173:65 0.00021692
40 *133:24 *173:61 0
41 *141:31 *173:49 3.47641e-06
42 *145:78 *173:59 0.000777412
43 *145:82 *173:61 0.01308
44 *146:35 *173:59 7.05143e-06
45 *146:35 *173:61 0.00154114
46 *151:25 *173:49 0.000485254
47 *151:25 *173:59 0.000349803
48 *153:49 *173:49 5.25192e-06
49 *163:18 *173:49 0
50 *163:18 *173:59 0.000378817
51 *163:20 *173:59 1.09232e-05
52 *163:20 *173:61 2.18517e-05
53 *165:37 *173:61 0.0190647
54 *167:33 *173:49 7.14469e-05
55 *168:59 *173:49 0.000103646
56 *169:22 *173:49 0.00139616
57 *170:49 *173:59 5.43216e-05
58 *170:49 *173:61 0
59 *171:33 *173:49 0.000317836
60 *172:10 *173:12 0
61 *172:33 *173:49 0
*RES
1 *3800:X *173:12 19.4607 
2 *173:12 *575:DIODE 13.8 
3 *173:12 *173:49 48.3265 
4 *173:49 *173:59 30.1776 
5 *173:59 *173:61 309.92 
6 *173:61 *173:65 11.6071 
7 *173:65 *3764:DI[28] 12.2857 
8 *173:65 *479:DIODE 9.3 
*END

*D_NET *174 0.0744351
*CONN
*I *480:DIODE I *D sky130_fd_sc_hd__diode_2
*I *3764:DI[29] I *D CF_SRAM_1024x32
*I *577:DIODE I *D sky130_fd_sc_hd__diode_2
*I *3801:X O *D sky130_fd_sc_hd__buf_4
*CAP
1 *480:DIODE 0.000570596
2 *3764:DI[29] 0.000719015
3 *577:DIODE 0
4 *3801:X 0.000190798
5 *174:43 0.00950071
6 *174:41 0.0124655
7 *174:10 0.003304
8 *3764:DI[29] *3764:BEN[29] 9.87983e-06
9 *174:41 *581:DIODE 0.000133701
10 *174:41 *177:22 0.00274255
11 *174:41 *191:24 0.000159381
12 *174:41 *195:40 0.000172123
13 *174:41 *196:16 0.000125793
14 *174:41 *206:43 4.83244e-05
15 *174:41 *225:32 8.61389e-05
16 *174:41 *227:81 0.00112803
17 *174:43 *3764:vpwrpc 0.00288726
18 wbs_dat_o[0] *174:10 2.44318e-05
19 *329:DIODE *174:41 0
20 *580:DIODE *174:10 0.000268396
21 *3:25 *174:43 0.0049682
22 *62:13 *174:10 0.000137983
23 *113:15 *174:43 0.00289266
24 *117:31 *174:41 0.000424243
25 *120:14 *174:43 0.00306892
26 *125:61 *174:41 3.37708e-05
27 *130:19 *174:43 0.0249602
28 *134:12 *480:DIODE 8.54274e-05
29 *134:12 *3764:DI[29] 0.000185367
30 *138:39 *174:41 0.000140137
31 *140:11 *174:43 0.000334573
32 *140:21 *174:41 0.00135463
33 *141:31 *174:41 0.00070387
34 *153:21 *174:10 0.000435832
35 *170:33 *174:10 0.000116941
36 *170:33 *174:41 5.57405e-05
*RES
1 *3801:X *174:10 19.675 
2 *174:10 *577:DIODE 13.8 
3 *174:10 *174:41 32.4323 
4 *174:41 *174:43 58.5338 
5 *174:43 *3764:DI[29] 14.3405 
6 *3764:DI[29] *480:DIODE 20.55 
*END

*D_NET *175 0.0673392
*CONN
*I *579:DIODE I *D sky130_fd_sc_hd__diode_2
*I *481:DIODE I *D sky130_fd_sc_hd__diode_2
*I *3764:DI[2] I *D CF_SRAM_1024x32
*I *3802:X O *D sky130_fd_sc_hd__clkbuf_4
*CAP
1 *579:DIODE 0
2 *481:DIODE 0
3 *3764:DI[2] 0.00064395
4 *3802:X 0.000302293
5 *175:34 0.00183396
6 *175:30 0.00478086
7 *175:28 0.00359085
8 *175:26 0.00177676
9 *175:14 0.00398638
10 *175:12 0.0024132
11 *175:6 0.000505873
12 *175:6 *178:10 0.00014183
13 *175:12 *178:10 0.000189127
14 *175:12 *178:25 0.000132258
15 *175:12 *198:27 0
16 *175:14 *3847:A 9.66977e-05
17 *175:14 *3852:A 0.00010096
18 *175:14 *3856:A 9.90431e-05
19 *175:14 *197:44 0.000699968
20 *175:14 *197:52 3.98559e-05
21 *175:14 *213:16 0.000518189
22 *175:14 *223:20 0.0048475
23 *175:14 *223:28 0.000104208
24 *175:14 *225:20 0.000114665
25 *175:26 *626:DIODE 2.12005e-05
26 *175:26 *3840:A 0.00178449
27 *175:26 *197:52 0.000146283
28 *175:26 *203:37 5.74499e-06
29 *175:30 *3843:A 0.000337154
30 *175:30 *215:18 7.47488e-05
31 wbs_dat_o[12] *175:26 0.000436212
32 wbs_dat_o[14] *175:26 0.000615124
33 wbs_dat_o[18] *175:26 9.45051e-05
34 wbs_dat_o[2] *175:14 0.00023891
35 wbs_dat_o[5] *175:14 6.58597e-05
36 wbs_dat_o[9] *175:26 0.000178847
37 *586:DIODE *175:12 4.70162e-05
38 *3744:D *175:30 0.000137073
39 *3805:A *175:6 2.72967e-05
40 *135:9 *3764:DI[2] 0.000357618
41 *148:22 *175:14 0.00972243
42 *148:32 *175:14 1.69961e-05
43 *148:32 *175:26 0.00198971
44 *149:27 *175:30 0.0126318
45 *150:97 *175:30 2.21972e-05
46 *153:49 *175:26 0.000363742
47 *168:41 *175:14 0.000285127
48 *172:37 *175:30 0.00149996
49 *172:39 *175:30 0.00932068
*RES
1 *3802:X *175:6 13.1214 
2 *175:6 *175:12 13.375 
3 *175:12 *175:14 93.3571 
4 *175:14 *175:26 47.1607 
5 *175:26 *175:28 4.5 
6 *175:28 *175:30 162.839 
7 *175:30 *175:34 16.5357 
8 *175:34 *3764:DI[2] 11.5804 
9 *175:34 *481:DIODE 9.3 
10 *175:6 *579:DIODE 9.3 
*END

*D_NET *176 0.0745721
*CONN
*I *581:DIODE I *D sky130_fd_sc_hd__diode_2
*I *482:DIODE I *D sky130_fd_sc_hd__diode_2
*I *3764:DI[30] I *D CF_SRAM_1024x32
*I *3803:X O *D sky130_fd_sc_hd__buf_4
*CAP
1 *581:DIODE 0.000199127
2 *482:DIODE 0
3 *3764:DI[30] 0.000464927
4 *3803:X 0.000336668
5 *176:36 0.00106082
6 *176:32 0.0127449
7 *176:30 0.0162682
8 *176:12 0.00465498
9 *581:DIODE *206:43 4.75875e-05
10 *581:DIODE *223:20 9.58126e-05
11 *176:30 *180:27 0.0039503
12 *176:30 *191:24 0.000159381
13 *176:30 *195:40 0.000125917
14 *176:30 *200:57 0.00014225
15 *176:30 *202:16 0.000552374
16 *176:32 *3841:A 0.000199113
17 *176:32 *177:24 0
18 *176:32 *178:61 0
19 *176:32 *179:53 0.000276388
20 *176:32 *180:29 0
21 *176:32 *181:27 0.00104118
22 *176:32 *186:25 0.00836938
23 *176:32 *191:34 0.00194946
24 *176:32 *224:24 0
25 *176:32 *224:26 0
26 wbs_dat_o[0] *176:12 0.000184745
27 wbs_dat_o[10] *176:30 0
28 wbs_dat_o[11] *176:30 0.000220153
29 wbs_dat_o[1] *581:DIODE 3.09981e-05
30 wbs_dat_o[1] *176:12 7.11727e-05
31 wbs_dat_o[27] *176:32 0.000134733
32 wbs_dat_o[28] *176:32 0
33 *362:DIODE *176:32 6.08466e-05
34 *580:DIODE *176:12 4.72818e-05
35 *136:11 *3764:DI[30] 0.000576194
36 *136:11 *176:36 8.76257e-05
37 *136:20 *176:36 0.00180057
38 *136:22 *176:32 0.0146241
39 *163:14 *176:30 0.000738906
40 *167:33 *581:DIODE 9.55638e-05
41 *169:22 *176:30 0.00284783
42 *170:33 *581:DIODE 5.61616e-05
43 *170:33 *176:12 0.000104707
44 *173:49 *581:DIODE 0
45 *173:49 *176:30 0.000118028
46 *174:41 *581:DIODE 0.000133701
*RES
1 *3803:X *176:12 19.2196 
2 *176:12 *176:30 28.7669 
3 *176:30 *176:32 356.366 
4 *176:32 *176:36 22.2857 
5 *176:36 *3764:DI[30] 12.1964 
6 *176:36 *482:DIODE 9.3 
7 *176:12 *581:DIODE 17.7554 
*END

*D_NET *177 0.073289
*CONN
*I *583:DIODE I *D sky130_fd_sc_hd__diode_2
*I *483:DIODE I *D sky130_fd_sc_hd__diode_2
*I *3764:DI[31] I *D CF_SRAM_1024x32
*I *3804:X O *D sky130_fd_sc_hd__buf_4
*CAP
1 *583:DIODE 4.21293e-05
2 *483:DIODE 0
3 *3764:DI[31] 0.000463995
4 *3804:X 0
5 *177:28 0.000944351
6 *177:24 0.0129289
7 *177:22 0.0155965
8 *177:4 0.00319011
9 *583:DIODE *200:33 0.000225989
10 *177:22 *191:24 0.00013955
11 *177:22 *213:16 0.000156075
12 *177:22 *225:32 4.19624e-06
13 *177:22 *227:81 6.99042e-05
14 *177:24 *178:53 0.000875605
15 *177:24 *191:34 0.00298373
16 *177:24 *224:26 1.69115e-05
17 *177:24 *235:22 0.00762167
18 wbs_dat_o[26] *177:24 2.11419e-05
19 *117:31 *177:22 9.03126e-05
20 *134:22 *177:24 0.00772117
21 *137:11 *3764:DI[31] 0.000576194
22 *137:11 *177:28 8.76257e-05
23 *137:20 *177:28 0.00145301
24 *141:31 *177:22 0.0023551
25 *143:41 *177:22 0.000122231
26 *150:103 *177:24 4.28249e-05
27 *151:25 *177:22 1.10782e-05
28 *153:59 *177:24 0.00481019
29 *153:67 *177:24 0.000500557
30 *168:41 *583:DIODE 0.000225337
31 *171:33 *177:22 0.000142268
32 *172:33 *177:22 0.00684788
33 *173:59 *177:22 0.000279852
34 *174:41 *177:22 0.00274255
35 *176:32 *177:24 0
*RES
1 *3804:X *177:4 9.3 
2 *177:4 *177:22 28.52 
3 *177:22 *177:24 359.402 
4 *177:24 *177:28 19 
5 *177:28 *3764:DI[31] 12.1786 
6 *177:28 *483:DIODE 9.3 
7 *177:4 *583:DIODE 11.4786 
*END

*D_NET *178 0.0701751
*CONN
*I *484:DIODE I *D sky130_fd_sc_hd__diode_2
*I *3764:DI[3] I *D CF_SRAM_1024x32
*I *585:DIODE I *D sky130_fd_sc_hd__diode_2
*I *3805:X O *D sky130_fd_sc_hd__clkbuf_4
*CAP
1 *484:DIODE 0
2 *3764:DI[3] 0.000629256
3 *585:DIODE 4.91556e-05
4 *3805:X 0.000209247
5 *178:65 0.00220436
6 *178:61 0.004168
7 *178:59 0.00266349
8 *178:53 0.00182622
9 *178:33 0.00782046
10 *178:31 0.00609362
11 *178:25 0.00129877
12 *178:10 0.00152839
13 *585:DIODE *198:27 1.58163e-05
14 *178:10 *179:12 0
15 *178:25 *179:27 0
16 *178:25 *184:43 0.00018372
17 *178:25 *196:10 0
18 *178:25 *196:14 0
19 *178:25 *197:10 0
20 *178:25 *197:16 0
21 *178:25 *198:27 0
22 *178:25 *229:139 0.000110844
23 *178:25 *231:133 6.95299e-05
24 *178:25 *231:142 1.87955e-05
25 *178:25 *231:179 2.19106e-05
26 *178:25 *231:194 2.17983e-05
27 *178:25 *234:35 0.00269183
28 *178:25 *234:46 0.000172309
29 *178:31 *229:27 1.37292e-05
30 *178:31 *233:297 5.41794e-05
31 *178:33 *179:49 0.000717149
32 *178:33 *184:43 0.0032365
33 *178:33 *184:47 0.00467391
34 *178:33 *232:97 6.42095e-05
35 *178:33 *232:107 0.000144791
36 *178:53 *182:35 4.46186e-06
37 *178:53 *183:35 0.000223742
38 *178:53 *184:57 0.000470804
39 *178:53 *191:34 0.0002012
40 *178:53 *235:22 0.000873884
41 *178:59 *185:29 0.000136958
42 *178:61 *179:53 0.00942342
43 *178:61 *191:34 0.00199281
44 *178:61 *224:26 0.0101909
45 *586:DIODE *178:10 4.60232e-06
46 *590:DIODE *178:10 0
47 *3726:D *178:25 4.18515e-05
48 *3806:A *178:10 5.41609e-05
49 *125:39 *178:53 0.000151313
50 *126:27 *178:53 0.000179037
51 *132:11 *178:53 0
52 *133:24 *178:53 1.78465e-05
53 *138:9 *3764:DI[3] 0.000397469
54 *138:9 *178:65 4.73569e-05
55 *141:15 *178:53 2.51989e-05
56 *145:42 *178:25 1.5424e-05
57 *145:56 *178:31 9.25014e-06
58 *150:33 *178:25 0.00305047
59 *156:31 *178:33 0.000527663
60 *156:31 *178:53 9.45051e-05
61 *160:29 *178:53 0
62 *175:6 *178:10 0.00014183
63 *175:12 *178:10 0.000189127
64 *175:12 *178:25 0.000132258
65 *176:32 *178:61 0
66 *177:24 *178:53 0.000875605
*RES
1 *3805:X *178:10 18.425 
2 *178:10 *585:DIODE 14.3357 
3 *178:10 *178:25 45.8571 
4 *178:25 *178:31 9.73214 
5 *178:31 *178:33 86.7857 
6 *178:33 *178:53 46.1062 
7 *178:53 *178:59 10.3571 
8 *178:59 *178:61 128.536 
9 *178:61 *178:65 20.6429 
10 *178:65 *3764:DI[3] 11.5982 
11 *178:65 *484:DIODE 9.3 
*END

*D_NET *179 0.0647987
*CONN
*I *485:DIODE I *D sky130_fd_sc_hd__diode_2
*I *3764:DI[4] I *D CF_SRAM_1024x32
*I *587:DIODE I *D sky130_fd_sc_hd__diode_2
*I *3806:X O *D sky130_fd_sc_hd__clkbuf_4
*CAP
1 *485:DIODE 0
2 *3764:DI[4] 0.000733187
3 *587:DIODE 0
4 *3806:X 0.000250784
5 *179:57 0.00229688
6 *179:53 0.00409888
7 *179:51 0.00253519
8 *179:49 0.00167142
9 *179:29 0.00319684
10 *179:27 0.00303054
11 *179:12 0.00175591
12 *179:12 *181:10 0
13 *179:27 *181:21 0
14 *179:27 *182:23 1.38323e-05
15 *179:27 *196:10 0
16 *179:27 *196:14 0
17 *179:27 *229:139 0
18 *179:27 *233:78 0
19 *179:27 *233:155 0
20 *179:29 *182:23 0.00928946
21 *179:29 *183:33 0.0013755
22 *179:49 *3759:A 0.000270077
23 *179:49 *183:35 0.000455257
24 *179:49 *184:47 2.78576e-05
25 *179:49 *184:57 0.000182893
26 *179:49 *187:22 0.000263108
27 *179:49 *192:75 1.48556e-05
28 *179:49 *232:8 5.49544e-05
29 *179:53 *181:27 0.00923894
30 *179:53 *186:25 0.000220186
31 *179:53 *191:34 0.00122147
32 *179:53 *224:24 0.000917312
33 *179:53 *224:26 3.34639e-05
34 *517:DIODE *3764:DI[4] 5.96516e-05
35 *590:DIODE *179:12 3.52194e-05
36 *592:DIODE *179:12 7.5779e-05
37 *3726:D *179:27 0
38 *3743:D *179:49 9.60939e-05
39 *3755:A *179:29 9.58126e-05
40 *3808:A *179:12 3.67257e-05
41 *66:11 *179:12 3.69047e-06
42 *110:16 *179:49 0.000265184
43 *110:26 *179:29 0.000219209
44 *111:30 *179:27 0.000291831
45 *111:30 *179:29 6.8445e-06
46 *114:11 *179:49 0.000230767
47 *115:19 *179:27 0
48 *126:27 *179:29 0.000322402
49 *139:9 *3764:DI[4] 0.000799709
50 *140:11 *179:49 2.32661e-05
51 *145:42 *179:27 0.00163861
52 *145:58 *179:29 0.00632363
53 *148:34 *179:49 0.000103267
54 *150:37 *179:49 0.000385222
55 *151:35 *179:49 0.000101545
56 *156:31 *179:29 0.000118491
57 *176:32 *179:53 0.000276388
58 *178:10 *179:12 0
59 *178:25 *179:27 0
60 *178:33 *179:49 0.000717149
61 *178:61 *179:53 0.00942342
*RES
1 *3806:X *179:12 17.8357 
2 *179:12 *587:DIODE 13.8 
3 *179:12 *179:27 35.1607 
4 *179:27 *179:29 88.4286 
5 *179:29 *179:49 49.0714 
6 *179:49 *179:51 4.5 
7 *179:51 *179:53 131.268 
8 *179:53 *179:57 20.2321 
9 *179:57 *3764:DI[4] 13.2946 
10 *179:57 *485:DIODE 9.3 
*END

*D_NET *180 0.0872723
*CONN
*I *416:DIODE I *D sky130_fd_sc_hd__diode_2
*I *3764:AD[0] I *D CF_SRAM_1024x32
*I *610:DIODE I *D sky130_fd_sc_hd__diode_2
*I *3807:X O *D sky130_fd_sc_hd__buf_4
*CAP
1 *416:DIODE 0
2 *3764:AD[0] 0.000478856
3 *610:DIODE 6.36152e-05
4 *3807:X 0.00017628
5 *180:33 0.00176247
6 *180:29 0.00917868
7 *180:27 0.0187383
8 *180:10 0.0110831
9 *610:DIODE *193:20 3.69047e-06
10 *3764:AD[0] *3764:AD[1] 0
11 *180:27 *191:24 0.00150118
12 *180:27 *202:16 0.00438787
13 *180:29 *190:12 0
14 *180:29 *213:22 4.76418e-05
15 *180:29 *216:16 0.000279086
16 wbs_dat_o[28] *180:29 0.000149382
17 *364:DIODE *180:29 8.65622e-05
18 *524:DIODE *180:33 5.99922e-05
19 *3764:R_WB *3764:AD[0] 0.00113045
20 *3764:R_WB *180:33 0.000265025
21 *3818:A *180:10 5.52302e-05
22 *3821:A *180:10 0
23 *31:5 *610:DIODE 1.21859e-05
24 *31:5 *180:10 5.53052e-05
25 *33:5 *180:10 0
26 *136:22 *180:29 0
27 *137:22 *180:29 0.0155597
28 *146:43 *180:33 0.000116648
29 *163:14 *180:27 0.0142382
30 *171:33 *180:27 0.00120101
31 *173:49 *180:27 0.00269161
32 *176:30 *180:27 0.0039503
33 *176:32 *180:29 0
*RES
1 *3807:X *180:10 17.0589 
2 *180:10 *610:DIODE 14.6125 
3 *180:10 *180:27 45.783 
4 *180:27 *180:29 208.223 
5 *180:29 *180:33 25.1607 
6 *180:33 *3764:AD[0] 12.1652 
7 *180:33 *416:DIODE 9.3 
*END

*D_NET *181 0.0607918
*CONN
*I *486:DIODE I *D sky130_fd_sc_hd__diode_2
*I *3764:DI[5] I *D CF_SRAM_1024x32
*I *591:DIODE I *D sky130_fd_sc_hd__diode_2
*I *3808:X O *D sky130_fd_sc_hd__clkbuf_4
*CAP
1 *486:DIODE 0
2 *3764:DI[5] 0.000756494
3 *591:DIODE 0
4 *3808:X 0.000239954
5 *181:31 0.00244429
6 *181:27 0.00392675
7 *181:25 0.00223895
8 *181:23 0.00414734
9 *181:21 0.0050884
10 *181:10 0.00118102
11 *181:10 *182:8 9.07927e-05
12 *181:21 *182:8 4.6025e-06
13 *181:21 *182:21 0.000509926
14 *181:21 *233:78 0.000212585
15 *181:21 *233:155 9.32322e-05
16 *181:27 *186:25 0.0073101
17 *181:27 *191:34 0.00122147
18 *518:DIODE *3764:DI[5] 0
19 *592:DIODE *181:10 0
20 *3809:A *181:10 3.55937e-05
21 *118:13 *181:23 0.0110952
22 *124:15 *181:23 0.00804071
23 *140:9 *3764:DI[5] 0.000306321
24 *144:24 *181:23 0.000199797
25 *160:29 *181:23 0.00136809
26 *176:32 *181:27 0.00104118
27 *179:12 *181:10 0
28 *179:27 *181:21 0
29 *179:53 *181:27 0.00923894
*RES
1 *3808:X *181:10 17.7107 
2 *181:10 *591:DIODE 13.8 
3 *181:10 *181:21 22.8393 
4 *181:21 *181:23 127.857 
5 *181:23 *181:25 4.5 
6 *181:25 *181:27 116.393 
7 *181:27 *181:31 21.4643 
8 *181:31 *3764:DI[5] 11.6339 
9 *181:31 *486:DIODE 9.3 
*END

*D_NET *182 0.0563571
*CONN
*I *487:DIODE I *D sky130_fd_sc_hd__diode_2
*I *3764:DI[6] I *D CF_SRAM_1024x32
*I *593:DIODE I *D sky130_fd_sc_hd__diode_2
*I *3809:X O *D sky130_fd_sc_hd__clkbuf_4
*CAP
1 *487:DIODE 0.000200882
2 *3764:DI[6] 0.000927015
3 *593:DIODE 0.000103076
4 *3809:X 0.000156014
5 *182:37 0.00305385
6 *182:35 0.00270923
7 *182:23 0.00866386
8 *182:21 0.00857864
9 *182:8 0.000957145
10 *593:DIODE *198:27 5.11684e-05
11 *182:8 *183:12 0
12 *182:21 *228:14 2.34969e-05
13 *182:21 *231:84 0.000260418
14 *182:23 *184:57 0.00118148
15 *519:DIODE *487:DIODE 2.59355e-05
16 *126:27 *182:23 0.000183698
17 *132:11 *487:DIODE 0.000117189
18 *132:11 *182:35 0.000110008
19 *132:11 *182:37 0.00775051
20 *133:24 *182:35 0
21 *141:11 *487:DIODE 6.05161e-06
22 *141:11 *3764:DI[6] 0.000448307
23 *144:20 *182:35 0.000348068
24 *144:20 *182:37 0.00550982
25 *144:30 *182:21 0.000166772
26 *145:42 *182:23 0.00129568
27 *145:58 *182:23 1.38323e-05
28 *145:78 *182:35 0
29 *154:31 *182:35 0.000608213
30 *159:27 *182:35 1.5929e-05
31 *167:47 *487:DIODE 6.5185e-05
32 *167:47 *182:37 0.00120435
33 *171:35 *182:35 0.00025662
34 *171:35 *182:37 0.00145158
35 *178:53 *182:35 4.46186e-06
36 *179:27 *182:23 1.38323e-05
37 *179:29 *182:23 0.00928946
38 *181:10 *182:8 9.07927e-05
39 *181:21 *182:8 4.6025e-06
40 *181:21 *182:21 0.000509926
*RES
1 *3809:X *182:8 16.6571 
2 *182:8 *593:DIODE 15.1571 
3 *182:8 *182:21 19.1964 
4 *182:21 *182:23 113.071 
5 *182:23 *182:35 21.3682 
6 *182:35 *182:37 97.7232 
7 *182:37 *3764:DI[6] 19.3661 
8 *182:37 *487:DIODE 17.6214 
*END

*D_NET *183 0.054198
*CONN
*I *488:DIODE I *D sky130_fd_sc_hd__diode_2
*I *3764:DI[7] I *D CF_SRAM_1024x32
*I *595:DIODE I *D sky130_fd_sc_hd__diode_2
*I *3810:X O *D sky130_fd_sc_hd__clkbuf_4
*CAP
1 *488:DIODE 0
2 *3764:DI[7] 0.000677916
3 *595:DIODE 0
4 *3810:X 0.000314473
5 *183:47 0.00234271
6 *183:43 0.00423039
7 *183:41 0.00277396
8 *183:35 0.00199598
9 *183:33 0.00263527
10 *183:25 0.00227711
11 *183:12 0.00174392
12 *183:12 *198:27 8.55871e-05
13 *183:25 *395:DIODE 4.72259e-05
14 *183:25 *597:DIODE 9.77118e-05
15 *183:25 *599:DIODE 5.47001e-05
16 *183:25 *198:27 0.000711856
17 *183:25 *223:12 0.000177228
18 *183:25 *225:18 0.000149697
19 *183:25 *229:54 0.000163173
20 *183:25 *233:297 5.40899e-05
21 *183:35 *184:57 6.37089e-05
22 *183:43 *185:33 0.00543141
23 *183:43 *213:24 0.00801262
24 *394:DIODE *183:25 8.65561e-05
25 *404:DIODE *183:25 1.88048e-05
26 *3752:D *183:25 8.34917e-05
27 *110:16 *183:35 0.00317442
28 *110:18 *183:33 0.00115669
29 *110:18 *183:35 0.00170317
30 *110:26 *183:33 0.000531286
31 *126:27 *183:35 0.000320382
32 *142:15 *3764:DI[7] 0.000956964
33 *142:15 *183:47 2.59355e-05
34 *145:56 *183:33 0.00199205
35 *145:58 *183:33 0.00153627
36 *145:58 *183:35 0.00622978
37 *155:21 *183:25 0
38 *156:31 *183:35 0.000286978
39 *178:53 *183:35 0.000223742
40 *179:29 *183:33 0.0013755
41 *179:49 *183:35 0.000455257
42 *182:8 *183:12 0
*RES
1 *3810:X *183:12 22.6214 
2 *183:12 *595:DIODE 9.3 
3 *183:12 *183:25 35.9464 
4 *183:25 *183:33 41.7679 
5 *183:33 *183:35 73.0268 
6 *183:35 *183:41 7.09821 
7 *183:41 *183:43 100.911 
8 *183:43 *183:47 25.5714 
9 *183:47 *3764:DI[7] 13.9018 
10 *183:47 *488:DIODE 9.3 
*END

*D_NET *184 0.0516809
*CONN
*I *489:DIODE I *D sky130_fd_sc_hd__diode_2
*I *3764:DI[8] I *D CF_SRAM_1024x32
*I *597:DIODE I *D sky130_fd_sc_hd__diode_2
*I *3811:X O *D sky130_fd_sc_hd__clkbuf_4
*CAP
1 *489:DIODE 0
2 *3764:DI[8] 0.000573436
3 *597:DIODE 6.8128e-05
4 *3811:X 0.000150443
5 *184:63 0.00140233
6 *184:59 0.0028284
7 *184:57 0.00254822
8 *184:47 0.00161925
9 *184:43 0.00209211
10 *184:29 0.00330689
11 *184:8 0.00250389
12 *184:8 *185:10 0
13 *184:29 *271:DIODE 2.64618e-05
14 *184:29 *185:27 0
15 *184:29 *229:27 4.11173e-05
16 *184:29 *229:39 0
17 *184:29 *229:207 6.72808e-05
18 *184:29 *233:297 0.000577193
19 *184:29 *234:46 9.25014e-06
20 *184:43 *231:8 1.02504e-05
21 *184:43 *232:107 5.49544e-05
22 *184:43 *233:297 0.00310886
23 *184:47 *304:DIODE 0.000108242
24 *184:47 *232:97 0.000306304
25 *260:DIODE *184:29 0.000444512
26 *521:DIODE *3764:DI[8] 0.000799612
27 *521:DIODE *184:63 5.33005e-05
28 *596:DIODE *184:8 0
29 *598:DIODE *184:8 7.72966e-05
30 *110:10 *184:59 0.00708549
31 *111:12 *184:29 0
32 *120:24 *184:43 1.43288e-05
33 *140:11 *184:57 0.000182893
34 *142:25 *184:29 0.000229938
35 *143:7 *3764:DI[8] 0.000349279
36 *145:42 *184:43 0.000139907
37 *145:58 *184:57 0.00160533
38 *150:33 *184:43 2.97042e-05
39 *150:37 *184:47 0.00136307
40 *156:31 *184:43 0.000433602
41 *156:31 *184:47 0.000265566
42 *170:49 *184:59 0.00708549
43 *178:25 *184:43 0.00018372
44 *178:33 *184:43 0.0032365
45 *178:33 *184:47 0.00467391
46 *178:53 *184:57 0.000470804
47 *179:49 *184:47 2.78576e-05
48 *179:49 *184:57 0.000182893
49 *182:23 *184:57 0.00118148
50 *183:25 *597:DIODE 9.77118e-05
51 *183:35 *184:57 6.37089e-05
*RES
1 *3811:X *184:8 16.3536 
2 *184:8 *597:DIODE 14.7464 
3 *184:8 *184:29 26.8173 
4 *184:29 *184:43 45.7477 
5 *184:43 *184:47 48.9821 
6 *184:47 *184:57 33.0179 
7 *184:57 *184:59 91.1964 
8 *184:59 *184:63 12.8393 
9 *184:63 *3764:DI[8] 11.6875 
10 *184:63 *489:DIODE 9.3 
*END

*D_NET *185 0.0384096
*CONN
*I *490:DIODE I *D sky130_fd_sc_hd__diode_2
*I *3764:DI[9] I *D CF_SRAM_1024x32
*I *599:DIODE I *D sky130_fd_sc_hd__diode_2
*I *3812:X O *D sky130_fd_sc_hd__clkbuf_4
*CAP
1 *490:DIODE 0
2 *3764:DI[9] 0.000597492
3 *599:DIODE 4.00913e-05
4 *3812:X 0.000300937
5 *185:43 0.0029032
6 *185:33 0.00501573
7 *185:31 0.00271003
8 *185:29 0.00724209
9 *185:27 0.00890778
10 *185:10 0.00200672
11 *185:27 *257:DIODE 0.000249456
12 *185:27 *259:DIODE 4.97282e-05
13 *185:27 *226:12 0
14 *255:DIODE *185:27 0.000119174
15 *260:DIODE *185:27 0
16 *533:DIODE *185:10 0
17 *535:DIODE *185:10 3.36408e-05
18 *41:9 *185:10 7.06193e-05
19 *125:15 *185:43 7.83587e-05
20 *141:15 *185:43 7.6644e-05
21 *141:31 *185:27 4.18801e-05
22 *142:25 *185:27 0
23 *143:59 *185:27 4.46406e-05
24 *144:9 *3764:DI[9] 0.000766552
25 *145:42 *185:27 0
26 *152:12 *185:10 0
27 *152:27 *185:27 0
28 *159:33 *185:29 0.000218685
29 *165:35 *185:29 0.000218685
30 *167:45 *185:29 0.00109443
31 *178:59 *185:29 0.000136958
32 *183:25 *599:DIODE 5.47001e-05
33 *183:43 *185:33 0.00543141
34 *184:8 *185:10 0
35 *184:29 *185:27 0
*RES
1 *3812:X *185:10 18.1214 
2 *185:10 *599:DIODE 14.3357 
3 *185:10 *185:27 31.3036 
4 *185:27 *185:29 122.518 
5 *185:29 *185:31 4.5 
6 *185:31 *185:33 69.6429 
7 *185:33 *185:43 37.25 
8 *185:43 *3764:DI[9] 11.5446 
9 *185:43 *490:DIODE 9.3 
*END

*D_NET *186 0.0541378
*CONN
*I *455:DIODE I *D sky130_fd_sc_hd__diode_2
*I *452:DIODE I *D sky130_fd_sc_hd__diode_2
*I *426:DIODE I *D sky130_fd_sc_hd__diode_2
*I *3764:BEN[0] I *D CF_SRAM_1024x32
*I *3764:BEN[1] I *D CF_SRAM_1024x32
*I *437:DIODE I *D sky130_fd_sc_hd__diode_2
*I *448:DIODE I *D sky130_fd_sc_hd__diode_2
*I *3764:BEN[2] I *D CF_SRAM_1024x32
*I *451:DIODE I *D sky130_fd_sc_hd__diode_2
*I *3764:BEN[3] I *D CF_SRAM_1024x32
*I *3764:BEN[4] I *D CF_SRAM_1024x32
*I *453:DIODE I *D sky130_fd_sc_hd__diode_2
*I *3764:BEN[5] I *D CF_SRAM_1024x32
*I *454:DIODE I *D sky130_fd_sc_hd__diode_2
*I *3764:BEN[6] I *D CF_SRAM_1024x32
*I *3764:BEN[7] I *D CF_SRAM_1024x32
*I *601:DIODE I *D sky130_fd_sc_hd__diode_2
*I *3813:X O *D sky130_fd_sc_hd__buf_12
*CAP
1 *455:DIODE 0
2 *452:DIODE 0
3 *426:DIODE 0
4 *3764:BEN[0] 0.000687079
5 *3764:BEN[1] 0.000715429
6 *437:DIODE 0
7 *448:DIODE 0
8 *3764:BEN[2] 0.000774803
9 *451:DIODE 0
10 *3764:BEN[3] 0.000775736
11 *3764:BEN[4] 0.000586609
12 *453:DIODE 0.000170798
13 *3764:BEN[5] 0.000592262
14 *454:DIODE 0.000142065
15 *3764:BEN[6] 0.000408592
16 *3764:BEN[7] 6.46581e-05
17 *601:DIODE 0.00021669
18 *3813:X 0
19 *186:168 0.000910055
20 *186:154 0.000957424
21 *186:145 0.000233143
22 *186:126 0.000774803
23 *186:124 0.000433266
24 *186:105 0.000775736
25 *186:103 0.000477681
26 *186:99 0.000427781
27 *186:89 0.000948677
28 *186:70 0.00076306
29 *186:68 0.000356365
30 *186:57 0.000485375
31 *186:33 0.00101815
32 *186:31 0.000935395
33 *186:29 0.0019501
34 *186:25 0.00384334
35 *186:23 0.00342959
36 *186:4 0.00154231
37 *601:DIODE *605:DIODE 0.000141734
38 *601:DIODE *192:14 4.6071e-05
39 *3764:BEN[0] *3764:ScanInDL 0
40 *186:25 *3841:A 0.000153047
41 *186:25 *191:34 0.00100885
42 *186:25 *224:24 0.000154624
43 wbs_dat_o[26] *186:23 7.43578e-06
44 *502:DIODE *3764:BEN[0] 0
45 *518:DIODE *3764:BEN[4] 0
46 *604:DIODE *601:DIODE 2.07878e-05
47 *3815:A *601:DIODE 7.8327e-05
48 *3815:A *186:23 0.000112995
49 *122:13 *3764:BEN[6] 0.000807829
50 *124:7 *3764:BEN[0] 0
51 *125:15 *186:103 0.000765981
52 *125:15 *186:124 0.000769917
53 *125:15 *186:145 0.000771631
54 *125:15 *186:154 7.29667e-05
55 *125:15 *186:168 0.000715695
56 *126:21 *186:124 0.000185192
57 *126:21 *186:145 0.000185192
58 *126:21 *186:168 0.000158287
59 *128:19 *186:103 0.000398465
60 *128:19 *186:124 0.000419865
61 *128:19 *186:145 0.000422171
62 *128:19 *186:154 4.58096e-05
63 *128:19 *186:168 0.000384594
64 *130:19 *3764:BEN[6] 0.000362745
65 *131:11 *186:57 0.000805441
66 *131:11 *186:68 0.000748947
67 *131:11 *186:89 0.00076317
68 *139:13 *186:57 0.000803788
69 *139:13 *186:68 0.000757334
70 *139:13 *186:89 0.000772281
71 *176:32 *186:25 0.00836938
72 *179:53 *186:25 0.000220186
73 *181:27 *186:25 0.0073101
*RES
1 *3813:X *186:4 9.3 
2 *186:4 *601:DIODE 22.8357 
3 *186:4 *186:23 23.4286 
4 *186:23 *186:25 105.768 
5 *186:25 *186:29 21.875 
6 *186:29 *186:31 2.17857 
7 *186:31 *186:33 8.33929 
8 *186:33 *3764:BEN[7] 1.11607 
9 *186:33 *3764:BEN[6] 19.8482 
10 *186:31 *186:57 14.6429 
11 *186:57 *454:DIODE 15.5679 
12 *186:57 *186:68 9.53571 
13 *186:68 *186:70 4.5 
14 *186:70 *3764:BEN[5] 9.36607 
15 *186:70 *453:DIODE 11.0679 
16 *186:68 *186:89 14.3393 
17 *186:89 *3764:BEN[4] 9.38393 
18 *186:89 *186:99 1.76786 
19 *186:99 *186:103 14.3393 
20 *186:103 *186:105 4.5 
21 *186:105 *3764:BEN[3] 11.9554 
22 *186:105 *451:DIODE 9.3 
23 *186:103 *186:124 9.83929 
24 *186:124 *186:126 4.5 
25 *186:126 *3764:BEN[2] 11.9375 
26 *186:126 *448:DIODE 9.3 
27 *186:124 *186:145 9.83929 
28 *186:145 *437:DIODE 13.8 
29 *186:145 *186:154 1.03571 
30 *186:154 *3764:BEN[1] 16.0625 
31 *186:154 *186:168 13.7321 
32 *186:168 *3764:BEN[0] 10.8036 
33 *186:168 *426:DIODE 9.3 
34 *186:99 *452:DIODE 9.3 
35 *186:29 *455:DIODE 9.3 
*END

*D_NET *187 0.0389836
*CONN
*I *603:DIODE I *D sky130_fd_sc_hd__diode_2
*I *429:DIODE I *D sky130_fd_sc_hd__diode_2
*I *428:DIODE I *D sky130_fd_sc_hd__diode_2
*I *427:DIODE I *D sky130_fd_sc_hd__diode_2
*I *457:DIODE I *D sky130_fd_sc_hd__diode_2
*I *456:DIODE I *D sky130_fd_sc_hd__diode_2
*I *3764:BEN[8] I *D CF_SRAM_1024x32
*I *3764:BEN[9] I *D CF_SRAM_1024x32
*I *3764:BEN[10] I *D CF_SRAM_1024x32
*I *3764:BEN[11] I *D CF_SRAM_1024x32
*I *3764:BEN[12] I *D CF_SRAM_1024x32
*I *430:DIODE I *D sky130_fd_sc_hd__diode_2
*I *3764:BEN[13] I *D CF_SRAM_1024x32
*I *431:DIODE I *D sky130_fd_sc_hd__diode_2
*I *3764:BEN[14] I *D CF_SRAM_1024x32
*I *432:DIODE I *D sky130_fd_sc_hd__diode_2
*I *3764:BEN[15] I *D CF_SRAM_1024x32
*I *3814:X O *D sky130_fd_sc_hd__buf_12
*CAP
1 *603:DIODE 0
2 *429:DIODE 0
3 *428:DIODE 0
4 *427:DIODE 0.000254551
5 *457:DIODE 0.000208714
6 *456:DIODE 0.000333495
7 *3764:BEN[8] 0.000452801
8 *3764:BEN[9] 0.000480645
9 *3764:BEN[10] 0.000982843
10 *3764:BEN[11] 4.77835e-05
11 *3764:BEN[12] 0.000568231
12 *430:DIODE 0.000196899
13 *3764:BEN[13] 0.000631362
14 *431:DIODE 0.000235161
15 *3764:BEN[14] 0.000665559
16 *432:DIODE 0.000238116
17 *3764:BEN[15] 0.000614293
18 *3814:X 0.000369237
19 *187:161 8.42404e-06
20 *187:156 0.000969635
21 *187:142 0.000775533
22 *187:140 0.000527317
23 *187:134 0.00105827
24 *187:114 0.00118671
25 *187:110 0.000932323
26 *187:104 0.00042441
27 *187:99 0
28 *187:94 0.00100525
29 *187:71 0.00082826
30 *187:69 0.000401931
31 *187:58 0.000461105
32 *187:46 0.00084058
33 *187:28 0.000852409
34 *187:26 0.000764329
35 *187:22 0.00270536
36 *187:8 0.00246066
37 *187:22 *348:DIODE 0.000136432
38 *187:22 *211:14 0.00179136
39 *187:22 *212:18 0.000909788
40 *497:DIODE *3764:BEN[14] 0
41 *3764:DI[15] *3764:BEN[15] 0
42 *3814:A *187:8 2.27416e-05
43 *117:11 *187:26 0
44 *119:5 *3764:BEN[14] 0
45 *122:13 *3764:BEN[10] 0.0007999
46 *124:11 *187:26 7.10572e-05
47 *124:11 *187:94 0.00020283
48 *124:11 *187:140 0.00072604
49 *125:15 *187:110 0.00077916
50 *125:39 *187:22 0.000322095
51 *126:21 *187:110 0.000185192
52 *127:11 *187:26 9.74361e-05
53 *127:11 *187:156 0.000701878
54 *129:11 *187:156 0.000701878
55 *130:19 *3764:BEN[10] 0.000358845
56 *131:11 *187:26 0.00161434
57 *131:11 *187:46 0.000684235
58 *131:11 *187:58 0.000104198
59 *131:11 *187:69 0.000821012
60 *131:11 *187:94 0.000723684
61 *131:11 *187:140 0.000375419
62 *141:15 *187:22 0.000367931
63 *141:15 *187:110 0.00077916
64 *150:37 *187:22 6.25907e-05
65 *155:29 *187:26 0.000985279
66 *155:29 *187:46 0.000675124
67 *155:29 *187:58 9.67412e-05
68 *155:29 *187:69 0.000812626
69 *155:29 *187:94 0.00032933
70 *179:49 *187:22 0.000263108
*RES
1 *3814:X *187:8 13.8536 
2 *187:8 *187:22 48.7679 
3 *187:22 *187:26 25.5714 
4 *187:26 *187:28 4.5 
5 *187:28 *3764:BEN[15] 8.33929 
6 *187:28 *432:DIODE 11.8893 
7 *187:26 *187:46 8.625 
8 *187:46 *3764:BEN[14] 14.0982 
9 *187:46 *187:58 1.33929 
10 *187:58 *431:DIODE 16.3893 
11 *187:58 *187:69 10.4464 
12 *187:69 *187:71 4.5 
13 *187:71 *3764:BEN[13] 9.25893 
14 *187:71 *430:DIODE 11.8893 
15 *187:69 *187:94 13.7321 
16 *187:94 *3764:BEN[12] 8.33929 
17 *3764:BEN[12] *187:99 0.194444 
18 *187:94 *187:104 2.58929 
19 *187:104 *187:110 18.8393 
20 *187:110 *187:114 10.1429 
21 *187:114 *3764:BEN[11] 0.883929 
22 *187:114 *3764:BEN[10] 19.7411 
23 *3764:BEN[10] *187:134 9.45536 
24 *187:134 *187:140 18.2321 
25 *187:140 *187:142 1.35714 
26 *187:142 *3764:BEN[9] 7.59821 
27 *187:142 *187:156 17.9286 
28 *187:156 *3764:BEN[8] 6.69643 
29 *3764:BEN[8] *187:161 0.151786 
30 *187:156 *456:DIODE 13.5321 
31 *187:140 *457:DIODE 12.3 
32 *187:134 *427:DIODE 12.3 
33 *187:110 *428:DIODE 9.3 
34 *187:104 *429:DIODE 9.3 
35 *187:8 *603:DIODE 9.3 
*END

*D_NET *188 0.0597929
*CONN
*I *433:DIODE I *D sky130_fd_sc_hd__diode_2
*I *434:DIODE I *D sky130_fd_sc_hd__diode_2
*I *441:DIODE I *D sky130_fd_sc_hd__diode_2
*I *3764:BEN[23] I *D CF_SRAM_1024x32
*I *440:DIODE I *D sky130_fd_sc_hd__diode_2
*I *439:DIODE I *D sky130_fd_sc_hd__diode_2
*I *3764:BEN[22] I *D CF_SRAM_1024x32
*I *3764:BEN[21] I *D CF_SRAM_1024x32
*I *438:DIODE I *D sky130_fd_sc_hd__diode_2
*I *3764:BEN[20] I *D CF_SRAM_1024x32
*I *436:DIODE I *D sky130_fd_sc_hd__diode_2
*I *3764:BEN[19] I *D CF_SRAM_1024x32
*I *435:DIODE I *D sky130_fd_sc_hd__diode_2
*I *3764:BEN[18] I *D CF_SRAM_1024x32
*I *3764:BEN[17] I *D CF_SRAM_1024x32
*I *3764:BEN[16] I *D CF_SRAM_1024x32
*I *605:DIODE I *D sky130_fd_sc_hd__diode_2
*I *3815:X O *D sky130_fd_sc_hd__buf_12
*CAP
1 *433:DIODE 0
2 *434:DIODE 0
3 *441:DIODE 0
4 *3764:BEN[23] 0.000692435
5 *440:DIODE 0
6 *439:DIODE 0
7 *3764:BEN[22] 0.000653349
8 *3764:BEN[21] 4.77835e-05
9 *438:DIODE 0
10 *3764:BEN[20] 0.000657496
11 *436:DIODE 0
12 *3764:BEN[19] 0.000636249
13 *435:DIODE 0
14 *3764:BEN[18] 0.000645169
15 *3764:BEN[17] 0.000350229
16 *3764:BEN[16] 0.000467155
17 *605:DIODE 0.000684176
18 *3815:X 0
19 *188:170 0.00109271
20 *188:159 0.000830432
21 *188:150 0.00052941
22 *188:130 0.0013218
23 *188:124 0.00107109
24 *188:115 0.000429181
25 *188:103 0.00101895
26 *188:94 0.000347242
27 *188:82 0.000878005
28 *188:73 0.000241756
29 *188:61 0.000932806
30 *188:57 0.000509081
31 *188:41 0.000891961
32 *188:29 0.0010099
33 *188:27 0.002937
34 *188:23 0.0146944
35 *188:21 0.0120699
36 *188:19 0.00361081
37 *188:6 0.00426878
38 *605:DIODE *3848:A 0.000129868
39 *3764:BEN[16] *3764:WLBI 0
40 *3764:BEN[16] *3764:TM 9.02718e-05
41 *188:19 *3848:A 0.000613688
42 *188:19 *217:10 0
43 *188:29 *3764:TM 0
44 wbs_dat_o[30] *605:DIODE 8.07313e-05
45 *500:DIODE *188:57 0
46 *504:DIODE *188:124 7.05143e-06
47 *506:DIODE *188:170 6.30388e-05
48 *600:DIODE *605:DIODE 6.87522e-06
49 *601:DIODE *605:DIODE 0.000141734
50 *604:DIODE *605:DIODE 2.07462e-05
51 *3764:CLKin *3764:BEN[17] 0.000211948
52 *3764:CLKin *188:57 0
53 *103:9 *605:DIODE 2.77348e-05
54 *104:7 *605:DIODE 0
55 *104:7 *188:19 0
56 *122:11 *3764:BEN[17] 0
57 *125:15 *188:61 0.000674623
58 *125:15 *188:73 0.000218486
59 *125:15 *188:82 0.000551431
60 *125:15 *188:94 0.000218486
61 *125:15 *188:103 6.81083e-05
62 *126:11 *188:124 6.04493e-05
63 *126:21 *188:82 0.000133769
64 *127:9 *3764:BEN[21] 0
65 *127:9 *188:130 0
66 *127:11 *188:41 0.000668027
67 *127:11 *188:57 9.67412e-05
68 *128:17 *188:61 8.9142e-05
69 *128:17 *188:73 8.59039e-05
70 *128:17 *188:82 0.000207401
71 *128:17 *188:94 8.59039e-05
72 *128:17 *188:103 0.000181741
73 *128:17 *188:115 5.5782e-05
74 *128:17 *188:124 0.000174589
75 *128:17 *188:150 7.58571e-05
76 *128:17 *188:159 0.000290838
77 *128:17 *188:170 8.15939e-05
78 *128:19 *188:61 0.000225498
79 *130:19 *3764:BEN[22] 0.000288278
80 *131:11 *188:41 0.000210547
81 *131:11 *188:57 3.35282e-05
82 *131:11 *188:124 0
83 *131:11 *188:159 0
84 *132:11 *188:170 0
85 *164:37 *188:103 0.000103253
*RES
1 *3815:X *188:6 13.8 
2 *188:6 *605:DIODE 22.9607 
3 *188:6 *188:19 60.8482 
4 *188:19 *188:21 0.535714 
5 *188:21 *188:23 157.366 
6 *188:23 *188:27 33.375 
7 *188:27 *188:29 3.82143 
8 *188:29 *3764:BEN[16] 8.69643 
9 *188:29 *188:41 13.125 
10 *188:41 *3764:BEN[17] 12.1964 
11 *188:41 *188:57 9.25 
12 *188:57 *188:61 13.125 
13 *188:61 *3764:BEN[18] 15.5 
14 *188:61 *188:73 2.85714 
15 *188:73 *435:DIODE 13.8 
16 *188:73 *188:82 7.10714 
17 *188:82 *3764:BEN[19] 15.5179 
18 *188:82 *188:94 2.85714 
19 *188:94 *436:DIODE 13.8 
20 *188:94 *188:103 7.41071 
21 *188:103 *3764:BEN[20] 15.5 
22 *188:103 *188:115 1.94643 
23 *188:115 *438:DIODE 13.8 
24 *188:115 *188:124 8.01786 
25 *188:124 *188:130 14.7232 
26 *188:130 *3764:BEN[21] 0.883929 
27 *188:130 *3764:BEN[22] 19.7411 
28 *188:124 *188:150 2.55357 
29 *188:150 *439:DIODE 13.8 
30 *188:150 *188:159 9.83929 
31 *188:159 *440:DIODE 13.8 
32 *188:159 *188:170 12.8214 
33 *188:170 *3764:BEN[23] 11.8571 
34 *188:170 *441:DIODE 9.3 
35 *188:57 *434:DIODE 9.3 
36 *188:27 *433:DIODE 9.3 
*END

*D_NET *189 0.0586373
*CONN
*I *442:DIODE I *D sky130_fd_sc_hd__diode_2
*I *444:DIODE I *D sky130_fd_sc_hd__diode_2
*I *450:DIODE I *D sky130_fd_sc_hd__diode_2
*I *3764:BEN[31] I *D CF_SRAM_1024x32
*I *449:DIODE I *D sky130_fd_sc_hd__diode_2
*I *3764:BEN[30] I *D CF_SRAM_1024x32
*I *447:DIODE I *D sky130_fd_sc_hd__diode_2
*I *446:DIODE I *D sky130_fd_sc_hd__diode_2
*I *3764:BEN[29] I *D CF_SRAM_1024x32
*I *3764:BEN[28] I *D CF_SRAM_1024x32
*I *445:DIODE I *D sky130_fd_sc_hd__diode_2
*I *3764:BEN[27] I *D CF_SRAM_1024x32
*I *3764:BEN[26] I *D CF_SRAM_1024x32
*I *443:DIODE I *D sky130_fd_sc_hd__diode_2
*I *3764:BEN[25] I *D CF_SRAM_1024x32
*I *3764:BEN[24] I *D CF_SRAM_1024x32
*I *607:DIODE I *D sky130_fd_sc_hd__diode_2
*I *3816:X O *D sky130_fd_sc_hd__buf_12
*CAP
1 *442:DIODE 0
2 *444:DIODE 0
3 *450:DIODE 0
4 *3764:BEN[31] 0.000703146
5 *449:DIODE 0
6 *3764:BEN[30] 0.000650542
7 *447:DIODE 0
8 *446:DIODE 0
9 *3764:BEN[29] 0.000599408
10 *3764:BEN[28] 4.77835e-05
11 *445:DIODE 0
12 *3764:BEN[27] 0.000670231
13 *3764:BEN[26] 0.000429338
14 *443:DIODE 0.000265106
15 *3764:BEN[25] 0.000430271
16 *3764:BEN[24] 0.000431547
17 *607:DIODE 0.000333402
18 *3816:X 0.000209604
19 *189:165 0.00119324
20 *189:154 0.000646455
21 *189:149 0
22 *189:142 0.00123623
23 *189:133 0.000931866
24 *189:124 0.000634225
25 *189:104 0.00123081
26 *189:98 0.00118302
27 *189:79 0.000670231
28 *189:77 0.00107322
29 *189:73 0.000863965
30 *189:63 0.00123027
31 *189:44 0.000695377
32 *189:42 0.00108085
33 *189:25 0.00127008
34 *189:23 0.00347298
35 *189:19 0.0194707
36 *189:8 0.0168409
37 *189:8 *3849:A 0
38 *189:8 *217:10 0
39 *509:DIODE *189:63 0
40 *512:DIODE *189:133 4.06782e-05
41 *3764:DI[29] *3764:BEN[29] 9.87983e-06
42 *3816:A *189:8 1.19472e-05
43 *130:9 *3764:BEN[24] 0
44 *131:11 *189:63 0
45 *132:11 *189:77 0
46 *134:20 *189:124 2.42082e-05
47 *134:20 *189:133 5.5782e-05
*RES
1 *3816:X *189:8 17.2643 
2 *189:8 *607:DIODE 17.2107 
3 *189:8 *189:19 287.607 
4 *189:19 *189:23 40.3571 
5 *189:23 *189:25 4.23214 
6 *189:25 *3764:BEN[24] 8.26786 
7 *189:25 *189:42 14.3393 
8 *189:42 *189:44 4.5 
9 *189:44 *3764:BEN[25] 8.125 
10 *189:44 *443:DIODE 13.1214 
11 *189:42 *189:63 14.3393 
12 *189:63 *3764:BEN[26] 8.10714 
13 *189:63 *189:73 3.82143 
14 *189:73 *189:77 14.9464 
15 *189:77 *189:79 4.5 
16 *189:79 *3764:BEN[27] 12.6429 
17 *189:79 *445:DIODE 9.3 
18 *189:77 *189:98 8.32143 
19 *189:98 *189:104 14.6161 
20 *189:104 *3764:BEN[28] 0.883929 
21 *189:104 *3764:BEN[29] 19.7411 
22 *189:98 *189:124 2.55357 
23 *189:124 *446:DIODE 13.8 
24 *189:124 *189:133 9.83929 
25 *189:133 *447:DIODE 13.8 
26 *189:133 *189:142 7.41071 
27 *189:142 *3764:BEN[30] 15.3036 
28 *3764:BEN[30] *189:149 0.145833 
29 *189:142 *189:154 2.55357 
30 *189:154 *449:DIODE 13.8 
31 *189:154 *189:165 12.8214 
32 *189:165 *3764:BEN[31] 11.7143 
33 *189:165 *450:DIODE 9.3 
34 *189:73 *444:DIODE 9.3 
35 *189:23 *442:DIODE 9.3 
*END

*D_NET *190 0.00922897
*CONN
*I *3746:C I *D sky130_fd_sc_hd__and4b_1
*I *3745:C I *D sky130_fd_sc_hd__and4b_1
*I *3744:C I *D sky130_fd_sc_hd__and4b_1
*I *3743:C I *D sky130_fd_sc_hd__and4b_1
*I *3761:A I *D sky130_fd_sc_hd__buf_2
*I *3817:X O *D sky130_fd_sc_hd__buf_1
*CAP
1 *3746:C 0
2 *3745:C 0
3 *3744:C 0.000168687
4 *3743:C 0
5 *3761:A 0.000157757
6 *3817:X 0.00143544
7 *190:36 0.000417648
8 *190:30 0.000995263
9 *190:14 0.00101644
10 *190:12 0.00188519
11 *3744:C *192:58 0.000156311
12 *3744:C *192:60 2.09136e-05
13 *3761:A *350:DIODE 9.41642e-05
14 *3761:A *3759:A 5.06804e-05
15 *3761:A *192:73 0.000165606
16 *3761:A *192:75 0.000137832
17 *3761:A *230:355 0.000140714
18 *190:12 *192:20 0
19 *190:12 *192:28 1.89507e-06
20 *190:12 *213:22 0
21 *190:14 *192:28 6.36135e-05
22 *190:14 *192:37 6.32335e-05
23 *190:14 *192:41 0.000224598
24 *190:30 *192:41 0.00016775
25 *190:30 *192:43 0.000180195
26 *190:30 *192:58 3.97677e-05
27 *190:30 *215:18 0.000305613
28 *190:30 *216:16 1.15281e-05
29 *190:36 *192:60 7.15808e-05
30 *190:36 *192:73 0.000156408
31 wbs_dat_o[25] *190:12 3.08664e-05
32 wbs_dat_o[29] *190:12 0.000286813
33 wbs_dat_o[30] *190:12 9.37289e-05
34 *359:DIODE *190:30 0.00017947
35 *3743:B *3761:A 5.33005e-05
36 *3746:B *190:14 5.47001e-05
37 *3746:D *190:12 7.14469e-05
38 *134:22 *190:30 7.29712e-05
39 *134:26 *190:30 8.46829e-05
40 *153:59 *190:30 9.56491e-05
41 *158:22 *190:30 4.10836e-05
42 *168:61 *190:30 2.52911e-05
43 *172:37 *190:30 1.01417e-05
44 *180:29 *190:12 0
*RES
1 *3817:X *190:12 39.8179 
2 *190:12 *190:14 5.875 
3 *190:14 *190:30 28.3214 
4 *190:30 *190:36 3.96429 
5 *190:36 *3761:A 13.55 
6 *190:36 *3743:C 9.3 
7 *190:30 *3744:C 11.4786 
8 *190:14 *3745:C 9.3 
9 *190:12 *3746:C 9.3 
*END

*D_NET *191 0.118176
*CONN
*I *614:DIODE I *D sky130_fd_sc_hd__diode_2
*I *3764:AD[1] I *D CF_SRAM_1024x32
*I *417:DIODE I *D sky130_fd_sc_hd__diode_2
*I *3818:X O *D sky130_fd_sc_hd__buf_4
*CAP
1 *614:DIODE 0
2 *3764:AD[1] 0.000513089
3 *417:DIODE 0
4 *3818:X 0.000178004
5 *191:34 0.0133642
6 *191:24 0.0358171
7 *191:8 0.023144
8 *3764:AD[1] *418:DIODE 0.00109112
9 *3764:AD[1] *202:30 0
10 *191:24 *195:30 0.000230568
11 *191:24 *199:55 0.000119624
12 *191:24 *202:16 0.00154514
13 *191:24 *213:16 0.0037343
14 *191:34 *224:24 0.000200192
15 *191:34 *224:26 0.0028648
16 *191:34 *235:22 0.00338221
17 *191:34 *244:14 5.4503e-05
18 *3764:AD[0] *3764:AD[1] 0
19 *3764:R_WB *3764:AD[1] 0
20 *3:15 *191:24 0.00297066
21 *114:19 *191:24 0.000592269
22 *117:31 *191:24 0.00100447
23 *125:15 *3764:AD[1] 2.26327e-05
24 *125:15 *191:34 1.21955e-05
25 *128:19 *3764:AD[1] 5.4695e-05
26 *128:19 *191:34 2.06178e-05
27 *134:22 *191:34 0.00297804
28 *138:39 *191:24 0.0003398
29 *139:31 *191:24 0.000478496
30 *140:21 *191:24 0.000478496
31 *141:31 *191:24 0.000910324
32 *143:41 *191:24 0.000159381
33 *151:25 *191:24 0.00229023
34 *153:59 *191:34 0.00107383
35 *153:67 *191:34 0.000216954
36 *156:31 *191:24 0.000223427
37 *163:14 *191:24 0.000956993
38 *169:22 *191:24 0.00118216
39 *171:33 *191:24 0.000795913
40 *172:33 *191:24 0.000239248
41 *172:37 *191:34 0.000387281
42 *172:39 *191:34 0.0015567
43 *173:49 *191:24 0.000336706
44 *173:59 *191:24 0.000117609
45 *174:41 *191:24 0.000159381
46 *176:30 *191:24 0.000159381
47 *176:32 *191:34 0.00194946
48 *177:22 *191:24 0.00013955
49 *177:24 *191:34 0.00298373
50 *178:53 *191:34 0.0002012
51 *178:61 *191:34 0.00199281
52 *179:53 *191:34 0.00122147
53 *180:27 *191:24 0.00150118
54 *181:27 *191:34 0.00122147
55 *186:25 *191:34 0.00100885
*RES
1 *3818:X *191:8 11.4964 
2 *191:8 *191:24 17.999 
3 *191:24 *191:34 45.0117 
4 *191:34 *417:DIODE 13.8 
5 *191:34 *3764:AD[1] 17.3438 
6 *191:8 *614:DIODE 9.3 
*END

*D_NET *192 0.00965499
*CONN
*I *612:DIODE I *D sky130_fd_sc_hd__diode_2
*I *363:DIODE I *D sky130_fd_sc_hd__diode_2
*I *360:DIODE I *D sky130_fd_sc_hd__diode_2
*I *3745:A_N I *D sky130_fd_sc_hd__and4b_1
*I *3744:A_N I *D sky130_fd_sc_hd__and4b_1
*I *3743:A_N I *D sky130_fd_sc_hd__and4b_1
*I *3759:A I *D sky130_fd_sc_hd__buf_2
*I *407:DIODE I *D sky130_fd_sc_hd__diode_2
*I *354:DIODE I *D sky130_fd_sc_hd__diode_2
*I *357:DIODE I *D sky130_fd_sc_hd__diode_2
*I *3746:A_N I *D sky130_fd_sc_hd__and4b_1
*I *3819:X O *D sky130_fd_sc_hd__buf_1
*CAP
1 *612:DIODE 0
2 *363:DIODE 0
3 *360:DIODE 0
4 *3745:A_N 1.78392e-05
5 *3744:A_N 0
6 *3743:A_N 0
7 *3759:A 0.00010154
8 *407:DIODE 0
9 *354:DIODE 0
10 *357:DIODE 0
11 *3746:A_N 0
12 *3819:X 0.000675502
13 *192:75 0.000137027
14 *192:73 0.000175589
15 *192:60 0.000191728
16 *192:58 0.000272273
17 *192:43 0.000272752
18 *192:41 0.000219201
19 *192:37 0.000232456
20 *192:28 0.000347462
21 *192:20 0.00143668
22 *192:14 0.00184792
23 *3759:A *230:355 9.37606e-06
24 *192:28 *3848:A 9.40687e-05
25 *192:28 *3849:A 6.05161e-06
26 *192:37 *3848:A 0.000221634
27 *192:41 *3848:A 2.95944e-05
28 *192:41 *217:10 2.73596e-05
29 *192:43 *217:10 6.46289e-06
30 *192:58 *217:10 2.969e-05
31 wbs_dat_o[27] *192:20 4.0342e-06
32 wbs_dat_o[30] *192:20 6.90663e-05
33 wbs_dat_o[31] *192:14 0.000138549
34 wbs_dat_o[31] *192:20 0.000118604
35 *601:DIODE *192:14 4.6071e-05
36 *604:DIODE *192:14 5.47047e-05
37 *3743:D *192:73 0.000231411
38 *3743:D *192:75 9.55684e-05
39 *3744:C *192:58 0.000156311
40 *3744:C *192:60 2.09136e-05
41 *3744:D *192:58 6.44047e-05
42 *3745:B *192:41 7.15808e-05
43 *3745:B *192:43 7.05645e-05
44 *3745:D *192:41 1.3144e-05
45 *3746:B *192:28 5.33005e-05
46 *3746:D *192:28 0.000109399
47 *3761:A *3759:A 5.06804e-05
48 *3761:A *192:73 0.000165606
49 *3761:A *192:75 0.000137832
50 *105:5 *192:14 2.88045e-05
51 *150:37 *3759:A 6.86487e-05
52 *150:71 *192:60 2.1806e-05
53 *150:71 *192:73 0.000135848
54 *150:78 *192:58 3.96735e-05
55 *150:78 *192:60 6.84479e-05
56 *150:97 *192:58 1.38323e-05
57 *179:49 *3759:A 0.000270077
58 *179:49 *192:75 1.48556e-05
59 *190:12 *192:20 0
60 *190:12 *192:28 1.89507e-06
61 *190:14 *192:28 6.36135e-05
62 *190:14 *192:37 6.32335e-05
63 *190:14 *192:41 0.000224598
64 *190:30 *192:41 0.00016775
65 *190:30 *192:43 0.000180195
66 *190:30 *192:58 3.97677e-05
67 *190:36 *192:60 7.15808e-05
68 *190:36 *192:73 0.000156408
*RES
1 *3819:X *192:14 26.5679 
2 *192:14 *192:20 21.5357 
3 *192:20 *192:28 9.17857 
4 *192:28 *3746:A_N 9.3 
5 *192:28 *192:37 2.60714 
6 *192:37 *192:41 4.55357 
7 *192:41 *192:43 1.76786 
8 *192:43 *357:DIODE 9.3 
9 *192:43 *192:58 5.23214 
10 *192:58 *192:60 1.76786 
11 *192:60 *354:DIODE 9.3 
12 *192:60 *192:73 4.80357 
13 *192:73 *192:75 1.35714 
14 *192:75 *407:DIODE 9.3 
15 *192:75 *3759:A 12.7464 
16 *192:73 *3743:A_N 9.3 
17 *192:58 *3744:A_N 9.3 
18 *192:41 *3745:A_N 9.72857 
19 *192:37 *360:DIODE 9.3 
20 *192:20 *363:DIODE 13.8 
21 *192:14 *612:DIODE 9.3 
*END

*D_NET *193 0.00853103
*CONN
*I *3824:A I *D sky130_fd_sc_hd__buf_12
*I *3753:Q O *D sky130_fd_sc_hd__dfrtp_1
*CAP
1 *3824:A 0
2 *3753:Q 0.000587219
3 *193:20 0.00107893
4 *193:10 0.00166615
5 *193:20 *224:14 0.00250283
6 *193:20 *235:14 0.00236103
7 *610:DIODE *193:20 3.69047e-06
8 *31:5 *193:20 0.000202835
9 *32:7 *193:20 0
10 *169:22 *193:20 0.00012835
*RES
1 *3753:Q *193:10 27.5321 
2 *193:10 *193:20 45.8929 
3 *193:20 *3824:A 9.3 
*END

*D_NET *194 0.0128189
*CONN
*I *370:DIODE I *D sky130_fd_sc_hd__diode_2
*I *623:DIODE I *D sky130_fd_sc_hd__diode_2
*I *3825:A I *D sky130_fd_sc_hd__buf_12
*I *3747:X O *D sky130_fd_sc_hd__and4b_1
*CAP
1 *370:DIODE 0
2 *623:DIODE 1.56388e-05
3 *3825:A 0
4 *3747:X 6.08653e-05
5 *194:34 0.00045723
6 *194:24 0.00279984
7 *194:10 0.00241912
8 *194:10 *222:19 9.60387e-05
9 *194:10 *230:139 9.76435e-06
10 *194:10 *232:123 2.25101e-05
11 *194:24 *222:19 5.74499e-06
12 *194:24 *228:39 0
13 *194:24 *230:139 9.41642e-05
14 *194:24 *232:123 4.40545e-06
15 *194:34 *221:12 0.000336174
16 *194:34 *224:18 0.00175272
17 *194:34 *226:27 0.00114689
18 wbs_dat_o[2] *194:34 0
19 wbs_dat_o[3] *623:DIODE 0.000131292
20 wbs_dat_o[3] *194:34 0.00015874
21 *572:DIODE *194:24 5.87153e-05
22 *3747:D *194:10 6.60357e-05
23 *3747:D *194:24 1.73088e-05
24 *58:17 *194:24 2.06655e-06
25 *59:13 *194:24 0.000171443
26 *60:13 *194:24 0
27 *114:19 *194:24 0.000213364
28 *157:29 *194:24 0.000284499
29 *157:33 *194:24 0.00185765
30 *169:22 *194:34 0.000351788
31 *170:14 *194:24 8.54626e-05
32 *170:33 *623:DIODE 0.000144498
33 *170:33 *194:34 5.49544e-05
34 *172:10 *194:24 0
35 *172:33 *194:24 0
*RES
1 *3747:X *194:10 11.2107 
2 *194:10 *194:24 45.375 
3 *194:24 *194:34 28.9464 
4 *194:34 *3825:A 9.3 
5 *194:34 *623:DIODE 10.6571 
6 *194:10 *370:DIODE 9.3 
*END

*D_NET *195 0.0269355
*CONN
*I *276:DIODE I *D sky130_fd_sc_hd__diode_2
*I *3826:A I *D sky130_fd_sc_hd__buf_12
*I *624:DIODE I *D sky130_fd_sc_hd__diode_2
*I *3725:X O *D sky130_fd_sc_hd__and4b_2
*CAP
1 *276:DIODE 0
2 *3826:A 1.90976e-05
3 *624:DIODE 0
4 *3725:X 0.000597075
5 *195:44 0.000276365
6 *195:40 0.00312349
7 *195:34 0.00323854
8 *195:30 0.00181477
9 *195:10 0.00203953
10 *195:10 *199:47 7.06479e-05
11 *195:30 *197:26 9.25014e-06
12 *195:30 *199:55 0.000974093
13 *195:30 *200:23 8.6229e-06
14 *195:30 *221:10 0
15 *195:30 *226:19 0.00134874
16 *195:30 *228:14 1.99881e-05
17 *195:34 *196:16 0.00198358
18 *195:34 *228:27 0.00194402
19 *195:40 *3835:A 0.00161078
20 *195:40 *196:16 0.000541566
21 *195:40 *206:43 0.000908933
22 *195:40 *227:81 0.000318024
23 wbs_dat_o[10] *3826:A 0.000131439
24 wbs_dat_o[10] *195:44 0.000417614
25 wbs_dat_o[11] *195:40 3.91784e-05
26 wbs_dat_o[7] *195:44 0.000311183
27 wbs_dat_o[9] *195:40 0.000152018
28 *3725:D *195:10 0.000516482
29 *114:19 *195:10 9.60337e-06
30 *114:19 *195:30 0.000605561
31 *117:31 *195:30 0.00124617
32 *125:61 *195:40 8.6229e-06
33 *143:41 *195:34 0.000103646
34 *143:59 *195:30 0.00141541
35 *153:21 *3826:A 8.02307e-05
36 *153:21 *195:44 0.000494231
37 *159:27 *195:30 0
38 *162:25 *195:30 2.84419e-05
39 *174:41 *195:40 0.000172123
40 *176:30 *195:40 0.000125917
41 *191:24 *195:30 0.000230568
*RES
1 *3725:X *195:10 21.925 
2 *195:10 *195:30 40.3256 
3 *195:30 *195:34 19.4464 
4 *195:34 *195:40 46.625 
5 *195:40 *195:44 13.6607 
6 *195:44 *624:DIODE 9.3 
7 *195:44 *3826:A 10.6571 
8 *195:10 *276:DIODE 13.8 
*END

*D_NET *196 0.0238746
*CONN
*I *281:DIODE I *D sky130_fd_sc_hd__diode_2
*I *3827:A I *D sky130_fd_sc_hd__buf_12
*I *625:DIODE I *D sky130_fd_sc_hd__diode_2
*I *3726:X O *D sky130_fd_sc_hd__and4b_2
*CAP
1 *281:DIODE 0
2 *3827:A 1.80799e-05
3 *625:DIODE 0
4 *3726:X 0.0002978
5 *196:16 0.00173755
6 *196:14 0.00182142
7 *196:10 0.000399752
8 *3827:A *3835:A 0.000100682
9 *3827:A *207:20 1.38323e-05
10 *196:10 *199:47 4.70078e-05
11 *196:10 *229:139 5.7234e-05
12 *196:10 *229:143 9.71197e-05
13 *196:16 *3835:A 0.00165792
14 *196:16 *197:16 0.00406841
15 *196:16 *200:23 0.000154501
16 *196:16 *206:43 0.000910856
17 *196:16 *207:20 0.000906048
18 *196:16 *226:12 0.00022459
19 *196:16 *226:19 0.00489494
20 *196:16 *227:81 0.00230766
21 *196:16 *228:27 1.54142e-05
22 *196:16 *228:39 3.18862e-05
23 wbs_dat_o[11] *3827:A 5.51952e-05
24 *111:14 *196:16 0.00108063
25 *117:31 *196:16 0.000325127
26 *174:41 *196:16 0.000125793
27 *178:25 *196:10 0
28 *178:25 *196:14 0
29 *179:27 *196:10 0
30 *179:27 *196:14 0
31 *195:34 *196:16 0.00198358
32 *195:40 *196:16 0.000541566
*RES
1 *3726:X *196:10 18.5321 
2 *196:10 *196:14 6.14286 
3 *196:14 *196:16 92.5357 
4 *196:16 *625:DIODE 9.3 
5 *196:16 *3827:A 10.2464 
6 *196:10 *281:DIODE 13.8 
*END

*D_NET *197 0.0270325
*CONN
*I *286:DIODE I *D sky130_fd_sc_hd__diode_2
*I *626:DIODE I *D sky130_fd_sc_hd__diode_2
*I *3828:A I *D sky130_fd_sc_hd__buf_12
*I *3727:X O *D sky130_fd_sc_hd__and4b_2
*CAP
1 *286:DIODE 0
2 *626:DIODE 0.000145854
3 *3828:A 0
4 *3727:X 0.000272336
5 *197:52 0.000458177
6 *197:44 0.00129977
7 *197:26 0.00151702
8 *197:16 0.00174411
9 *197:10 0.00148687
10 *626:DIODE *203:37 8.54131e-05
11 *197:10 *198:27 0
12 *197:10 *229:143 0.000129515
13 *197:10 *229:147 0.00010096
14 *197:10 *231:133 0.000148903
15 *197:16 *198:27 0
16 *197:16 *228:14 0.000477594
17 *197:16 *228:27 0.00294498
18 *197:26 *199:55 2.13074e-05
19 *197:26 *206:35 0.00116885
20 *197:26 *218:31 0.00216332
21 *197:26 *222:19 2.44318e-05
22 *197:44 *3853:A 2.13947e-05
23 *197:44 *201:27 9.77264e-06
24 *197:44 *203:27 2.13947e-05
25 *197:44 *204:12 0.000186765
26 *197:44 *204:23 0.000695993
27 *197:44 *207:20 0
28 *197:44 *218:43 4.88637e-05
29 *197:44 *222:19 2.95641e-05
30 *197:44 *222:29 0.000989218
31 *197:52 *3856:A 0.00010096
32 *197:52 *203:37 0.000814273
33 wbs_dat_o[12] *626:DIODE 0.000139208
34 wbs_dat_o[12] *197:52 0.000309441
35 wbs_dat_o[14] *626:DIODE 0.000116964
36 wbs_dat_o[5] *197:44 0.000320024
37 wbs_dat_o[9] *197:52 0.000128
38 *285:DIODE *197:10 0
39 *111:14 *197:16 0.000215348
40 *114:19 *197:26 0.000213364
41 *117:31 *197:16 0.000101825
42 *157:33 *197:26 0.000554647
43 *157:33 *197:44 0.00207654
44 *162:25 *197:26 0.000161458
45 *168:41 *197:44 0.000368908
46 *168:41 *197:52 0.000225609
47 *168:55 *626:DIODE 8.6229e-06
48 *175:14 *197:44 0.000699968
49 *175:14 *197:52 3.98559e-05
50 *175:26 *626:DIODE 2.12005e-05
51 *175:26 *197:52 0.000146283
52 *178:25 *197:10 0
53 *178:25 *197:16 0
54 *195:30 *197:26 9.25014e-06
55 *196:16 *197:16 0.00406841
*RES
1 *3727:X *197:10 18.5321 
2 *197:10 *197:16 48.6786 
3 *197:16 *197:26 32.75 
4 *197:26 *197:44 46.5179 
5 *197:44 *197:52 16.2679 
6 *197:52 *3828:A 9.3 
7 *197:52 *626:DIODE 21.7107 
8 *197:10 *286:DIODE 13.8 
*END

*D_NET *198 0.0241968
*CONN
*I *3829:A I *D sky130_fd_sc_hd__buf_12
*I *627:DIODE I *D sky130_fd_sc_hd__diode_2
*I *291:DIODE I *D sky130_fd_sc_hd__diode_2
*I *3728:X O *D sky130_fd_sc_hd__and4b_2
*CAP
1 *3829:A 6.5453e-05
2 *627:DIODE 0
3 *291:DIODE 0
4 *3728:X 0.000184964
5 *198:59 0.000359963
6 *198:57 0.00143659
7 *198:37 0.00368381
8 *198:27 0.00484769
9 *198:12 0.00249092
10 *3829:A *200:59 0.00014285
11 *198:12 *229:147 9.83388e-05
12 *198:12 *229:155 4.73286e-05
13 *198:27 *233:60 7.2029e-05
14 *198:37 *200:33 5.50228e-05
15 *198:37 *200:57 0.000395361
16 *198:57 *3851:A 0.000151012
17 *198:57 *200:57 0.00117133
18 *198:57 *200:59 0.000343758
19 *198:57 *222:29 1.54142e-05
20 *198:59 *200:59 0.000689928
21 wbs_dat_o[14] *3829:A 0
22 wbs_dat_o[15] *3829:A 9.25014e-06
23 wbs_dat_o[5] *198:57 5.1588e-05
24 wbs_dat_o[6] *198:57 0.000441964
25 *285:DIODE *198:12 1.9774e-05
26 *285:DIODE *198:27 8.50152e-05
27 *536:DIODE *198:27 4.58194e-05
28 *537:DIODE *198:27 2.59355e-05
29 *541:DIODE *198:27 0.000142856
30 *552:DIODE *198:37 0.000142856
31 *582:DIODE *198:37 5.52302e-05
32 *585:DIODE *198:27 1.58163e-05
33 *586:DIODE *198:27 0.000137983
34 *592:DIODE *198:27 7.72745e-05
35 *593:DIODE *198:27 5.11684e-05
36 *117:31 *198:27 0
37 *151:10 *198:27 0
38 *153:49 *3829:A 0
39 *154:25 *198:57 4.34444e-05
40 *156:25 *198:37 0.00281967
41 *167:41 *198:57 0.000569394
42 *168:41 *198:37 1.10868e-05
43 *168:41 *198:57 0.000666041
44 *168:59 *3829:A 0.000131163
45 *168:59 *198:59 0.000183726
46 *170:14 *198:37 0.000139637
47 *170:33 *198:37 0.00106419
48 *171:6 *198:37 0.000175892
49 *171:33 *198:37 4.08637e-05
50 *175:12 *198:27 0
51 *178:25 *198:27 0
52 *183:12 *198:27 8.55871e-05
53 *183:25 *198:27 0.000711856
54 *197:10 *198:27 0
55 *197:16 *198:27 0
*RES
1 *3728:X *198:12 21.1036 
2 *198:12 *291:DIODE 9.3 
3 *198:12 *198:27 49.8125 
4 *198:27 *198:37 48.8661 
5 *198:37 *198:57 43.875 
6 *198:57 *198:59 6.69643 
7 *198:59 *627:DIODE 9.3 
8 *198:59 *3829:A 20.3893 
*END

*D_NET *199 0.0301457
*CONN
*I *3830:A I *D sky130_fd_sc_hd__buf_12
*I *628:DIODE I *D sky130_fd_sc_hd__diode_2
*I *296:DIODE I *D sky130_fd_sc_hd__diode_2
*I *3729:X O *D sky130_fd_sc_hd__and4b_2
*CAP
1 *3830:A 0.000191923
2 *628:DIODE 0
3 *296:DIODE 0
4 *3729:X 0.000367735
5 *199:57 0.0046293
6 *199:55 0.00556916
7 *199:47 0.00267985
8 *199:14 0.0019158
9 *3830:A *201:33 5.14277e-05
10 *3830:A *207:20 9.90367e-05
11 *199:14 *3728:B 0.00021253
12 *199:14 *3729:A_N 0.00014285
13 *199:14 *3729:C 9.76491e-05
14 *199:14 *229:155 2.28598e-05
15 *199:14 *233:108 8.60142e-05
16 *199:14 *234:8 0.000119889
17 *199:47 *3721:A_N 0.000175691
18 *199:47 *3725:C 5.23296e-05
19 *199:47 *227:14 9.41642e-05
20 *199:47 *229:58 4.08637e-05
21 *199:47 *229:68 5.33005e-05
22 *199:47 *229:143 0.00021528
23 *199:47 *229:147 8.07313e-05
24 *199:47 *231:69 8.43535e-06
25 *199:47 *231:148 0.000316184
26 *199:47 *231:179 0
27 *199:47 *233:82 0.000401939
28 *199:47 *233:91 5.68519e-05
29 *199:47 *233:108 0.000183721
30 *199:47 *233:186 0.000430832
31 *199:47 *233:193 8.57899e-05
32 *199:57 *207:20 0.00127228
33 *199:57 *226:19 0.000993474
34 *199:57 *228:39 0.00337108
35 *246:DIODE *199:47 0.000159852
36 *3725:D *199:47 0.000601904
37 *3726:D *199:47 0.000229456
38 *114:19 *199:55 0.00240536
39 *116:19 *199:47 0.00011765
40 *117:31 *199:55 0.000488679
41 *117:31 *199:57 0.000213364
42 *141:31 *199:57 0.000188464
43 *143:41 *199:55 3.7143e-05
44 *143:59 *199:55 8.51784e-05
45 *150:26 *199:14 2.78576e-05
46 *150:33 *199:14 1.48556e-05
47 *150:33 *199:47 3.97677e-05
48 *152:27 *199:47 0.000199006
49 *153:49 *3830:A 9.54798e-06
50 *164:21 *199:55 7.60103e-05
51 *191:24 *199:55 0.000119624
52 *195:10 *199:47 7.06479e-05
53 *195:30 *199:55 0.000974093
54 *196:10 *199:47 4.70078e-05
55 *197:26 *199:55 2.13074e-05
*RES
1 *3729:X *199:14 25.1214 
2 *199:14 *296:DIODE 9.3 
3 *199:14 *199:47 49.8654 
4 *199:47 *199:55 14.2504 
5 *199:55 *199:57 62.9643 
6 *199:57 *628:DIODE 9.3 
7 *199:57 *3830:A 21.1929 
*END

*D_NET *200 0.028011
*CONN
*I *3831:A I *D sky130_fd_sc_hd__buf_12
*I *629:DIODE I *D sky130_fd_sc_hd__diode_2
*I *301:DIODE I *D sky130_fd_sc_hd__diode_2
*I *3730:X O *D sky130_fd_sc_hd__and4b_2
*CAP
1 *3831:A 0.000114821
2 *629:DIODE 0.000194395
3 *301:DIODE 0
4 *3730:X 0.000194317
5 *200:59 0.000730317
6 *200:57 0.00116063
7 *200:33 0.00246906
8 *200:23 0.00362596
9 *200:12 0.00209074
10 *629:DIODE *201:33 0.000108437
11 *3831:A *203:37 8.43535e-06
12 *200:23 *257:DIODE 0.000139907
13 *200:23 *221:10 0
14 *200:23 *226:12 0.000226507
15 *200:23 *226:19 0.00114146
16 *200:33 *3836:A 3.08382e-06
17 *200:57 *3851:A 4.88637e-05
18 *200:59 *641:DIODE 0.000124245
19 *200:59 *227:81 0.000568772
20 wbs_dat_o[13] *3831:A 6.05161e-06
21 wbs_dat_o[13] *200:59 0.000437507
22 wbs_dat_o[15] *3831:A 0.000204318
23 wbs_dat_o[15] *200:59 0.000441731
24 wbs_dat_o[17] *629:DIODE 0.000136881
25 wbs_dat_o[17] *3831:A 8.55871e-05
26 wbs_dat_o[1] *200:57 0.00026816
27 wbs_dat_o[2] *200:57 2.01732e-05
28 wbs_dat_o[4] *200:57 0.000639241
29 wbs_dat_o[6] *200:57 0.000340183
30 wbs_dat_o[8] *200:57 0.00034299
31 wbs_dat_o[8] *200:59 0.000222939
32 *260:DIODE *200:23 0.000186669
33 *300:DIODE *200:12 3.69697e-05
34 *547:DIODE *200:33 9.77118e-05
35 *559:DIODE *200:33 5.47047e-05
36 *583:DIODE *200:33 0.000225989
37 *3798:A *200:33 5.33005e-05
38 *3804:A *200:33 0.000137179
39 *3829:A *200:59 0.00014285
40 *111:14 *200:12 0.000183726
41 *111:14 *200:23 0.00251826
42 *143:59 *200:23 0.000940546
43 *150:19 *200:12 5.9483e-05
44 *156:25 *200:33 0.00102806
45 *157:12 *200:33 9.91033e-05
46 *157:29 *200:33 0.000695536
47 *159:27 *200:23 0
48 *167:41 *200:57 2.1806e-05
49 *168:14 *200:33 0.000383758
50 *168:41 *200:33 0.00100856
51 *168:41 *200:57 3.8895e-05
52 *168:59 *200:59 1.51489e-05
53 *170:14 *200:33 7.27365e-05
54 *170:33 *200:33 0.000625209
55 *170:43 *629:DIODE 0.000216755
56 *171:6 *200:33 8.55871e-05
57 *171:33 *200:33 2.59355e-05
58 *176:30 *200:57 0.00014225
59 *195:30 *200:23 8.6229e-06
60 *196:16 *200:23 0.000154501
61 *198:37 *200:33 5.50228e-05
62 *198:37 *200:57 0.000395361
63 *198:57 *200:57 0.00117133
64 *198:57 *200:59 0.000343758
65 *198:59 *200:59 0.000689928
*RES
1 *3730:X *200:12 22.3179 
2 *200:12 *301:DIODE 9.3 
3 *200:12 *200:23 48.5357 
4 *200:23 *200:33 46.9821 
5 *200:33 *200:57 33.0179 
6 *200:57 *200:59 18.6071 
7 *200:59 *629:DIODE 22.425 
8 *200:59 *3831:A 11.9071 
*END

*D_NET *201 0.0133779
*CONN
*I *3832:A I *D sky130_fd_sc_hd__buf_12
*I *630:DIODE I *D sky130_fd_sc_hd__diode_2
*I *306:DIODE I *D sky130_fd_sc_hd__diode_2
*I *3731:X O *D sky130_fd_sc_hd__and4b_1
*CAP
1 *3832:A 5.03894e-05
2 *630:DIODE 0
3 *306:DIODE 0
4 *3731:X 0.000122236
5 *201:33 0.000943117
6 *201:27 0.00382063
7 *201:23 0.00319282
8 *201:10 0.000387148
9 *201:10 *230:110 0.000166262
10 *201:23 *230:104 1.24368e-05
11 *201:23 *230:106 7.34839e-05
12 *201:23 *230:110 2.89016e-05
13 *201:27 *204:12 9.94037e-05
14 *201:27 *204:23 0.00171427
15 *201:27 *218:43 0.000568779
16 *201:27 *222:29 3.97677e-05
17 *201:33 *232:59 0.000120229
18 wbs_dat_o[10] *201:33 0.000188586
19 wbs_dat_o[16] *3832:A 0.000129574
20 wbs_dat_o[16] *201:33 0.00061862
21 wbs_dat_o[17] *201:33 0
22 *320:DIODE *201:27 0.000139913
23 *629:DIODE *201:33 0.000108437
24 *3830:A *201:33 5.14277e-05
25 *139:31 *201:27 0.000121926
26 *143:41 *201:23 7.14469e-05
27 *153:49 *201:33 0.000309162
28 *157:49 *201:33 0.000118712
29 *170:43 *201:33 0.000170427
30 *197:44 *201:27 9.77264e-06
*RES
1 *3731:X *201:10 11.6214 
2 *201:10 *306:DIODE 9.3 
3 *201:10 *201:23 12.2143 
4 *201:23 *201:27 44.4643 
5 *201:27 *201:33 23.1786 
6 *201:33 *630:DIODE 9.3 
7 *201:33 *3832:A 10.6571 
*END

*D_NET *202 0.0746091
*CONN
*I *616:DIODE I *D sky130_fd_sc_hd__diode_2
*I *418:DIODE I *D sky130_fd_sc_hd__diode_2
*I *3764:AD[2] I *D CF_SRAM_1024x32
*I *3820:X O *D sky130_fd_sc_hd__buf_4
*CAP
1 *616:DIODE 3.83685e-05
2 *418:DIODE 0.000524808
3 *3764:AD[2] 0.000592474
4 *3820:X 0.000125814
5 *202:30 0.00903826
6 *202:16 0.0164002
7 *202:6 0.00759381
8 *3764:AD[1] *418:DIODE 0.00109112
9 *3764:AD[1] *202:30 0
10 *3:15 *202:16 0
11 *3:25 *202:30 0
12 *33:5 *202:16 2.09897e-05
13 *122:13 *202:30 1.94879e-05
14 *130:19 *202:30 0.00642875
15 *163:14 *202:16 0.0121567
16 *169:22 *202:16 0.0112616
17 *170:33 *202:16 0.000213364
18 *173:49 *202:16 0.00261794
19 *176:30 *202:16 0.000552374
20 *180:27 *202:16 0.00438787
21 *191:24 *202:16 0.00154514
*RES
1 *3820:X *202:6 11.0679 
2 *202:6 *202:16 43.9657 
3 *202:16 *202:30 48.8288 
4 *202:30 *3764:AD[2] 1.29911 
5 *3764:AD[2] *418:DIODE 22.0009 
6 *202:6 *616:DIODE 9.83571 
*END

*D_NET *203 0.0148856
*CONN
*I *631:DIODE I *D sky130_fd_sc_hd__diode_2
*I *3833:A I *D sky130_fd_sc_hd__buf_12
*I *311:DIODE I *D sky130_fd_sc_hd__diode_2
*I *3732:X O *D sky130_fd_sc_hd__and4b_1
*CAP
1 *631:DIODE 0.000111662
2 *3833:A 4.06336e-05
3 *311:DIODE 0
4 *3732:X 0.000315684
5 *203:37 0.00275389
6 *203:27 0.00433118
7 *203:14 0.00204527
8 *631:DIODE *3839:A 4.58194e-05
9 *203:14 *230:104 9.71197e-05
10 *203:37 *3840:A 0.000523499
11 wbs_dat_o[13] *203:37 5.60962e-05
12 wbs_dat_o[14] *203:37 4.26609e-05
13 wbs_dat_o[17] *203:37 0.000940723
14 wbs_dat_o[22] *631:DIODE 1.21289e-05
15 wbs_dat_o[22] *203:37 3.67257e-05
16 *310:DIODE *203:14 7.94608e-05
17 *626:DIODE *203:37 8.54131e-05
18 *3831:A *203:37 8.43535e-06
19 *143:41 *203:14 0.000103617
20 *153:49 *203:37 2.09072e-05
21 *157:33 *203:14 0.000142856
22 *157:33 *203:27 0.00203945
23 *170:47 *203:37 8.8424e-05
24 *172:33 *203:27 0.000122494
25 *175:26 *203:37 5.74499e-06
26 *197:44 *203:27 2.13947e-05
27 *197:52 *203:37 0.000814273
*RES
1 *3732:X *203:14 23.4607 
2 *203:14 *311:DIODE 9.3 
3 *203:14 *203:27 33.4107 
4 *203:27 *203:37 43.5536 
5 *203:37 *3833:A 10.0321 
6 *203:37 *631:DIODE 10.6571 
*END

*D_NET *204 0.00997449
*CONN
*I *3834:A I *D sky130_fd_sc_hd__buf_12
*I *632:DIODE I *D sky130_fd_sc_hd__diode_2
*I *316:DIODE I *D sky130_fd_sc_hd__diode_2
*I *3733:X O *D sky130_fd_sc_hd__and4b_1
*CAP
1 *3834:A 1.491e-05
2 *632:DIODE 0
3 *316:DIODE 0
4 *3733:X 0.000142724
5 *204:25 1.491e-05
6 *204:23 0.00128197
7 *204:12 0.00142469
8 *3834:A *3838:A 9.8621e-05
9 *3834:A *3840:A 0.000100262
10 *204:12 *222:29 8.6229e-06
11 *204:23 *343:DIODE 0.000229637
12 *204:23 *347:DIODE 8.85532e-05
13 *204:23 *3838:A 5.25192e-06
14 *204:23 *209:14 0.000279755
15 *204:23 *211:14 0.000602226
16 *204:23 *212:18 9.83388e-05
17 *204:23 *230:45 0.000516299
18 *204:23 *230:47 0.000142004
19 *204:23 *230:53 0.000534229
20 *204:23 *232:51 0
21 wbs_dat_o[19] *204:23 0.000177671
22 *315:DIODE *204:12 0.000116371
23 *320:DIODE *204:23 0.00014183
24 *345:DIODE *204:23 4.87953e-05
25 *349:DIODE *204:23 0.000138217
26 *117:31 *204:12 2.37838e-05
27 *125:39 *204:23 2.93514e-05
28 *125:61 *204:23 0.000543629
29 *139:13 *204:23 0.000129589
30 *139:31 *204:23 0.000135196
31 *157:33 *204:23 0.000210612
32 *197:44 *204:12 0.000186765
33 *197:44 *204:23 0.000695993
34 *201:27 *204:12 9.94037e-05
35 *201:27 *204:23 0.00171427
*RES
1 *3733:X *204:12 22.0143 
2 *204:12 *316:DIODE 9.3 
3 *204:12 *204:23 49.75 
4 *204:23 *204:25 4.5 
5 *204:25 *632:DIODE 9.3 
6 *204:25 *3834:A 10.2464 
*END

*D_NET *205 0.00869763
*CONN
*I *3835:A I *D sky130_fd_sc_hd__buf_12
*I *3734:X O *D sky130_fd_sc_hd__and4b_1
*CAP
1 *3835:A 0.00117963
2 *3734:X 0.000302568
3 *205:10 0.0014822
4 *3835:A *207:20 7.08658e-05
5 *3835:A *208:14 0.00159097
6 *205:10 *317:DIODE 2.03044e-05
7 wbs_dat_o[11] *3835:A 0.000120125
8 wbs_dat_o[19] *3835:A 2.59355e-05
9 *320:DIODE *205:10 4.75955e-05
10 *3827:A *3835:A 0.000100682
11 *125:61 *3835:A 0.000488061
12 *195:40 *3835:A 0.00161078
13 *196:16 *3835:A 0.00165792
*RES
1 *3734:X *205:10 22.3714 
2 *205:10 *3835:A 45.9964 
*END

*D_NET *206 0.0109767
*CONN
*I *3836:A I *D sky130_fd_sc_hd__buf_12
*I *633:DIODE I *D sky130_fd_sc_hd__diode_2
*I *375:DIODE I *D sky130_fd_sc_hd__diode_2
*I *3748:X O *D sky130_fd_sc_hd__and4b_1
*CAP
1 *3836:A 2.91883e-05
2 *633:DIODE 0
3 *375:DIODE 0
4 *3748:X 0.000263885
5 *206:43 0.000527548
6 *206:35 0.00127032
7 *206:10 0.00103585
8 *206:10 *218:6 6.43051e-06
9 *206:10 *227:43 2.44318e-05
10 *206:10 *232:109 8.36572e-05
11 *206:10 *232:111 8.27532e-05
12 *206:10 *232:123 0.000221634
13 *206:10 *234:90 3.97677e-05
14 *206:35 *227:43 0.00129403
15 *206:35 *227:63 2.14963e-05
16 *206:35 *232:107 0.000632402
17 *206:35 *232:109 0.000156571
18 wbs_dat_o[1] *3836:A 2.89114e-05
19 *581:DIODE *206:43 4.75875e-05
20 *3748:D *206:10 0.000544487
21 *138:39 *206:35 0.000103646
22 *157:33 *206:35 0.00117077
23 *166:21 *206:35 7.29156e-05
24 *168:41 *3836:A 8.92418e-05
25 *172:33 *206:35 8.58848e-05
26 *173:49 *206:43 0.000103245
27 *174:41 *206:43 4.83244e-05
28 *195:40 *206:43 0.000908933
29 *196:16 *206:43 0.000910856
30 *197:26 *206:35 0.00116885
31 *200:33 *3836:A 3.08382e-06
*RES
1 *3748:X *206:10 16.8536 
2 *206:10 *375:DIODE 9.3 
3 *206:10 *206:35 47.125 
4 *206:35 *206:43 22.7321 
5 *206:43 *633:DIODE 9.3 
6 *206:43 *3836:A 10.2643 
*END

*D_NET *207 0.0118692
*CONN
*I *325:DIODE I *D sky130_fd_sc_hd__diode_2
*I *3837:A I *D sky130_fd_sc_hd__buf_12
*I *634:DIODE I *D sky130_fd_sc_hd__diode_2
*I *3735:X O *D sky130_fd_sc_hd__and4b_1
*CAP
1 *325:DIODE 0
2 *3837:A 2.52067e-05
3 *634:DIODE 0
4 *3735:X 0.000104512
5 *207:28 0.000362513
6 *207:20 0.00189424
7 *207:10 0.00166145
8 *3837:A *3842:A 0.000127651
9 *207:10 *230:76 0.000183713
10 *207:20 *208:14 4.35482e-05
11 *207:20 *227:81 8.6229e-06
12 *207:20 *228:39 0.000657803
13 *207:28 *3842:A 9.83442e-05
14 *207:28 *212:18 1.34297e-05
15 wbs_dat_o[11] *207:20 0.000273245
16 wbs_dat_o[19] *207:20 0.000266057
17 wbs_dat_o[20] *3837:A 0.000140856
18 wbs_dat_o[20] *207:28 0.000223469
19 wbs_dat_o[22] *207:28 0
20 wbs_dat_o[23] *207:28 0.000381408
21 *3735:D *207:10 0.00014285
22 *3827:A *207:20 1.38323e-05
23 *3830:A *207:20 9.90367e-05
24 *3835:A *207:20 7.08658e-05
25 *125:39 *207:20 0.00181487
26 *125:61 *207:10 0.000105299
27 *125:61 *207:20 5.20298e-05
28 *143:41 *207:10 1.98839e-05
29 *163:18 *207:28 0.000483926
30 *167:41 *207:10 0.000114847
31 *167:41 *207:20 0.000219561
32 *173:59 *207:28 8.78064e-05
33 *196:16 *207:20 0.000906048
34 *197:44 *207:20 0
35 *199:57 *207:20 0.00127228
*RES
1 *3735:X *207:10 17.2107 
2 *207:10 *207:20 46.5357 
3 *207:20 *207:28 18.2857 
4 *207:28 *634:DIODE 9.3 
5 *207:28 *3837:A 10.6571 
6 *207:10 *325:DIODE 13.8 
*END

*D_NET *208 0.00901673
*CONN
*I *3838:A I *D sky130_fd_sc_hd__buf_12
*I *3736:X O *D sky130_fd_sc_hd__and4b_1
*CAP
1 *3838:A 0.000357353
2 *3736:X 0.00128069
3 *208:14 0.00163804
4 *3838:A *3840:A 0.000713307
5 *208:14 *3737:A_N 4.72917e-05
6 *208:14 *209:14 0.000559415
7 *208:14 *230:66 6.57914e-05
8 *208:14 *230:72 3.77662e-05
9 *208:14 *234:165 3.97657e-05
10 *208:14 *234:172 2.29824e-05
11 *208:14 *234:179 8.25843e-06
12 wbs_dat_o[18] *3838:A 0.000365286
13 wbs_dat_o[19] *3838:A 6.44809e-05
14 wbs_dat_o[21] *3838:A 0.000314736
15 *3737:D *208:14 2.76033e-05
16 *3834:A *3838:A 9.8621e-05
17 *3835:A *208:14 0.00159097
18 *125:39 *3838:A 5.05056e-05
19 *125:39 *208:14 0.00155807
20 *148:32 *3838:A 2.77173e-05
21 *153:49 *3838:A 5.49489e-05
22 *153:57 *3838:A 4.43256e-05
23 *204:23 *3838:A 5.25192e-06
24 *207:20 *208:14 4.35482e-05
*RES
1 *3736:X *208:14 47.2643 
2 *208:14 *3838:A 30.1571 
*END

*D_NET *209 0.00909179
*CONN
*I *3839:A I *D sky130_fd_sc_hd__buf_12
*I *3737:X O *D sky130_fd_sc_hd__and4b_1
*CAP
1 *3839:A 0.000493495
2 *3737:X 0.00108083
3 *209:14 0.00157433
4 *209:14 *343:DIODE 0.000231554
5 *209:14 *3738:A_N 3.6355e-05
6 *209:14 *211:14 0.00145783
7 *209:14 *230:45 0.000389727
8 *209:14 *232:51 0.000432834
9 *209:14 *232:59 0.000230206
10 *209:14 *234:172 0.000109966
11 wbs_dat_o[22] *3839:A 0.000432237
12 *631:DIODE *3839:A 4.58194e-05
13 *3737:D *209:14 5.49627e-05
14 *151:35 *3839:A 0.000317659
15 *157:49 *209:14 0.000864931
16 *163:18 *3839:A 0.000499894
17 *204:23 *209:14 0.000279755
18 *208:14 *209:14 0.000559415
*RES
1 *3737:X *209:14 49.8536 
2 *209:14 *3839:A 29.3357 
*END

*D_NET *210 0.00815527
*CONN
*I *3840:A I *D sky130_fd_sc_hd__buf_12
*I *3738:X O *D sky130_fd_sc_hd__and4b_1
*CAP
1 *3840:A 0.000727998
2 *3738:X 0.000648222
3 *210:14 0.00137622
4 *210:14 *230:37 0.000186662
5 *210:14 *234:179 0.000394547
6 *210:14 *234:185 0.00020618
7 wbs_dat_o[14] *3840:A 0.000164951
8 wbs_dat_o[14] *210:14 1.49645e-05
9 wbs_dat_o[21] *3840:A 0.000105549
10 wbs_dat_o[23] *3840:A 0.000222491
11 *3738:D *210:14 0.000201755
12 *3834:A *3840:A 0.000100262
13 *3838:A *3840:A 0.000713307
14 *128:29 *210:14 0
15 *139:31 *210:14 0.000137183
16 *153:49 *3840:A 0.000637215
17 *153:57 *3840:A 9.77264e-06
18 *175:26 *3840:A 0.00178449
19 *203:37 *3840:A 0.000523499
*RES
1 *3738:X *210:14 30.8714 
2 *210:14 *3840:A 35.3179 
*END

*D_NET *211 0.00758838
*CONN
*I *3841:A I *D sky130_fd_sc_hd__buf_12
*I *3739:X O *D sky130_fd_sc_hd__and4b_1
*CAP
1 *3841:A 0.000224119
2 *3739:X 0.00114389
3 *211:14 0.00136801
4 *3841:A *224:24 0.000278347
5 *211:14 *347:DIODE 7.40571e-05
6 *211:14 *212:18 7.96335e-05
7 *3739:D *211:14 0.000216755
8 *176:32 *3841:A 0.000199113
9 *186:25 *3841:A 0.000153047
10 *187:22 *211:14 0.00179136
11 *204:23 *211:14 0.000602226
12 *209:14 *211:14 0.00145783
*RES
1 *3739:X *211:14 47.1929 
2 *211:14 *3841:A 25.4071 
*END

*D_NET *212 0.00778715
*CONN
*I *3842:A I *D sky130_fd_sc_hd__buf_12
*I *3740:X O *D sky130_fd_sc_hd__and4b_1
*CAP
1 *3842:A 0.000733625
2 *3740:X 0.00130862
3 *212:18 0.00204225
4 *212:18 *230:23 6.47602e-05
5 *212:18 *230:27 2.36643e-05
6 *212:18 *232:39 1.21258e-05
7 *212:18 *232:51 5.13403e-05
8 *212:18 *234:241 2.13481e-06
9 wbs_dat_o[20] *3842:A 0.000353441
10 wbs_dat_o[23] *212:18 0.00018636
11 wbs_dat_o[24] *212:18 0
12 wbs_dat_o[25] *3842:A 0.000416572
13 *349:DIODE *212:18 0.000130441
14 *353:DIODE *212:18 0.000183726
15 *3739:D *212:18 9.41642e-05
16 *3741:D *212:18 6.05161e-06
17 *3837:A *3842:A 0.000127651
18 *129:17 *212:18 4.25176e-05
19 *139:13 *212:18 5.79582e-06
20 *168:61 *212:18 1.0033e-05
21 *170:49 *212:18 0.000618637
22 *173:59 *212:18 0.000173706
23 *187:22 *212:18 0.000909788
24 *204:23 *212:18 9.83388e-05
25 *207:28 *3842:A 9.83442e-05
26 *207:28 *212:18 1.34297e-05
27 *211:14 *212:18 7.96335e-05
*RES
1 *3740:X *212:18 49.925 
2 *212:18 *3842:A 27.9071 
*END

*D_NET *213 0.10097
*CONN
*I *618:DIODE I *D sky130_fd_sc_hd__diode_2
*I *419:DIODE I *D sky130_fd_sc_hd__diode_2
*I *3764:AD[3] I *D CF_SRAM_1024x32
*I *3821:X O *D sky130_fd_sc_hd__buf_4
*CAP
1 *618:DIODE 0
2 *419:DIODE 3.39639e-05
3 *3764:AD[3] 0.000606612
4 *3821:X 0.000202893
5 *213:28 0.00269137
6 *213:24 0.0066708
7 *213:22 0.00512704
8 *213:16 0.0212924
9 *213:8 0.0209882
10 *3764:AD[3] *3764:ScanInCC 0.000399774
11 *213:16 *223:20 0.000103646
12 *213:16 *225:20 0.000103646
13 *213:22 *216:16 0.000531587
14 *491:DIODE *3764:AD[3] 5.19842e-06
15 *491:DIODE *213:28 7.64446e-06
16 *619:DIODE *213:8 1.92905e-05
17 *3746:B *213:22 2.84151e-05
18 *3746:B *213:24 1.10105e-05
19 *3746:D *213:22 1.90656e-05
20 *3764:AD[9] *3764:AD[3] 0
21 *125:15 *419:DIODE 3.92854e-05
22 *128:19 *419:DIODE 7.83659e-05
23 *137:22 *213:22 6.22314e-05
24 *137:22 *213:24 0.0139301
25 *148:22 *213:16 0.00114799
26 *151:25 *213:16 0.0143095
27 *173:59 *213:16 9.07498e-05
28 *175:14 *213:16 0.000518189
29 *177:22 *213:16 0.000156075
30 *180:29 *213:22 4.76418e-05
31 *183:43 *213:24 0.00801262
32 *190:12 *213:22 0
33 *191:24 *213:16 0.0037343
*RES
1 *3821:X *213:8 11.4964 
2 *213:8 *213:16 47.2831 
3 *213:16 *213:22 14.3921 
4 *213:22 *213:24 175.438 
5 *213:24 *213:28 25.9821 
6 *213:28 *3764:AD[3] 11.8259 
7 *213:28 *419:DIODE 19.3357 
8 *213:8 *618:DIODE 9.3 
*END

*D_NET *214 0.00442931
*CONN
*I *3843:A I *D sky130_fd_sc_hd__buf_12
*I *3741:X O *D sky130_fd_sc_hd__and4b_1
*CAP
1 *3843:A 0.000896845
2 *3741:X 0.000896845
3 *3843:A *344:DIODE 2.12005e-05
4 *3843:A *352:DIODE 0.000439585
5 *3843:A *3742:B 0.000304387
6 *3843:A *215:18 0.000325962
7 *3843:A *216:16 0.000431186
8 *3843:A *230:339 8.43535e-06
9 *3843:A *232:39 7.20217e-06
10 wbs_dat_o[26] *3843:A 5.33005e-05
11 *3742:D *3843:A 1.51571e-05
12 *150:45 *3843:A 9.8621e-05
13 *150:56 *3843:A 0.000268396
14 *172:37 *3843:A 0.000325036
15 *175:30 *3843:A 0.000337154
*RES
1 *3741:X *3843:A 49.475 
*END

*D_NET *215 0.00510589
*CONN
*I *3844:A I *D sky130_fd_sc_hd__buf_12
*I *3742:X O *D sky130_fd_sc_hd__and4b_1
*CAP
1 *3844:A 0
2 *3742:X 0.00147237
3 *215:18 0.00147237
4 *215:18 *352:DIODE 0.000311934
5 *215:18 *216:16 2.42516e-05
6 wbs_dat_o[24] *215:18 0.000303068
7 wbs_dat_o[26] *215:18 0
8 wbs_dat_o[27] *215:18 0.000171741
9 *3843:A *215:18 0.000325962
10 *153:59 *215:18 0.000268997
11 *172:37 *215:18 0.000374831
12 *175:30 *215:18 7.47488e-05
13 *190:30 *215:18 0.000305613
*RES
1 *3742:X *215:18 49.3714 
2 *215:18 *3844:A 9.3 
*END

*D_NET *216 0.0048099
*CONN
*I *3845:A I *D sky130_fd_sc_hd__buf_12
*I *3743:X O *D sky130_fd_sc_hd__and4b_1
*CAP
1 *3845:A 2.59347e-05
2 *3743:X 0.00147033
3 *216:16 0.00149626
4 wbs_dat_o[28] *3845:A 5.33005e-05
5 *362:DIODE *216:16 3.15914e-05
6 *3746:D *216:16 5.39166e-06
7 *3843:A *216:16 0.000431186
8 *170:49 *216:16 0.00030192
9 *173:59 *216:16 0.00014754
10 *180:29 *216:16 0.000279086
11 *190:30 *216:16 1.15281e-05
12 *213:22 *216:16 0.000531587
13 *215:18 *216:16 2.42516e-05
*RES
1 *3743:X *216:16 46.9429 
2 *216:16 *3845:A 14.3357 
*END

*D_NET *217 0.0070692
*CONN
*I *3846:A I *D sky130_fd_sc_hd__buf_12
*I *3744:X O *D sky130_fd_sc_hd__and4b_1
*CAP
1 *3846:A 1.03267e-05
2 *3744:X 0.00208366
3 *217:10 0.00209398
4 *217:10 *3848:A 0.00102796
5 *217:10 *3849:A 0.00118163
6 wbs_dat_o[29] *3846:A 5.52302e-05
7 *3745:B *217:10 0.000141486
8 *3745:D *217:10 1.40749e-05
9 *104:7 *217:10 0.000365468
10 *105:5 *217:10 0
11 *107:11 *3846:A 3.18676e-05
12 *188:19 *217:10 0
13 *189:8 *217:10 0
14 *192:41 *217:10 2.73596e-05
15 *192:43 *217:10 6.46289e-06
16 *192:58 *217:10 2.969e-05
*RES
1 *3744:X *217:10 48.8357 
2 *217:10 *3846:A 14.3357 
*END

*D_NET *218 0.0124962
*CONN
*I *3847:A I *D sky130_fd_sc_hd__buf_12
*I *635:DIODE I *D sky130_fd_sc_hd__diode_2
*I *380:DIODE I *D sky130_fd_sc_hd__diode_2
*I *3749:X O *D sky130_fd_sc_hd__and4b_1
*CAP
1 *3847:A 2.61288e-05
2 *635:DIODE 0
3 *380:DIODE 0
4 *3749:X 0.000269173
5 *218:43 0.000698955
6 *218:31 0.0014805
7 *218:6 0.00107685
8 *3847:A *223:28 2.17996e-05
9 *218:6 *3748:A_N 8.64516e-06
10 *218:6 *3748:B 5.49544e-05
11 *218:6 *3749:C 2.33546e-05
12 *218:6 *227:43 5.33005e-05
13 *218:31 *368:DIODE 0.000165683
14 *218:31 *222:19 0.00263642
15 *218:31 *227:43 4.25176e-05
16 *218:31 *230:131 9.39059e-05
17 *218:31 *232:123 6.24158e-05
18 *218:43 *308:DIODE 0.00010096
19 *218:43 *222:19 9.90367e-05
20 *218:43 *222:29 0.000968894
21 *218:43 *231:20 0
22 wbs_dat_o[2] *3847:A 5.33005e-05
23 *3748:D *218:6 0.000211673
24 *3748:D *218:31 5.33005e-05
25 *113:25 *218:31 6.09762e-05
26 *117:31 *218:43 0.000230624
27 *138:39 *218:31 0.000246879
28 *139:31 *218:31 0.000103646
29 *141:31 *218:43 0.000272506
30 *157:29 *218:31 0.000443654
31 *157:33 *218:31 8.43535e-06
32 *160:29 *218:31 1.67577e-05
33 *173:49 *218:43 2.69001e-05
34 *175:14 *3847:A 9.66977e-05
35 *197:26 *218:31 0.00216332
36 *197:44 *218:43 4.88637e-05
37 *201:27 *218:43 0.000568779
38 *206:10 *218:6 6.43051e-06
*RES
1 *3749:X *218:6 13.9429 
2 *218:6 *380:DIODE 9.3 
3 *218:6 *218:31 49.7273 
4 *218:31 *218:43 30.0179 
5 *218:43 *635:DIODE 9.3 
6 *218:43 *3847:A 10.2464 
*END

*D_NET *219 0.00441102
*CONN
*I *3848:A I *D sky130_fd_sc_hd__buf_12
*I *3745:X O *D sky130_fd_sc_hd__and4b_1
*CAP
1 *3848:A 0.000893317
2 *3745:X 0.000893317
3 *3848:A *3849:A 0.000397444
4 *605:DIODE *3848:A 0.000129868
5 *3746:D *3848:A 0.000110135
6 *104:7 *3848:A 0
7 *188:19 *3848:A 0.000613688
8 *192:28 *3848:A 9.40687e-05
9 *192:37 *3848:A 0.000221634
10 *192:41 *3848:A 2.95944e-05
11 *217:10 *3848:A 0.00102796
*RES
1 *3745:X *3848:A 48.0286 
*END

*D_NET *220 0.00375795
*CONN
*I *3849:A I *D sky130_fd_sc_hd__buf_12
*I *3746:X O *D sky130_fd_sc_hd__and4b_1
*CAP
1 *3849:A 0.000937171
2 *3746:X 0.000937171
3 *3813:A *3849:A 0.000271601
4 *3816:A *3849:A 0
5 *3848:A *3849:A 0.000397444
6 *105:5 *3849:A 2.68764e-05
7 *106:5 *3849:A 0
8 *189:8 *3849:A 0
9 *192:28 *3849:A 6.05161e-06
10 *217:10 *3849:A 0.00118163
*RES
1 *3746:X *3849:A 49.7786 
*END

*D_NET *221 0.0134392
*CONN
*I *385:DIODE I *D sky130_fd_sc_hd__diode_2
*I *3850:A I *D sky130_fd_sc_hd__buf_12
*I *636:DIODE I *D sky130_fd_sc_hd__diode_2
*I *3750:X O *D sky130_fd_sc_hd__and4b_1
*CAP
1 *385:DIODE 0.000260899
2 *3850:A 7.24879e-05
3 *636:DIODE 4.36033e-05
4 *3750:X 0
5 *221:16 0.000283026
6 *221:12 0.00207048
7 *221:10 0.00270624
8 *221:4 0.00106359
9 *385:DIODE *386:DIODE 0.000210961
10 *385:DIODE *3749:B 4.00276e-06
11 *385:DIODE *231:44 7.53109e-06
12 *385:DIODE *234:46 9.39125e-05
13 *385:DIODE *234:52 0.000125671
14 *221:10 *3749:A_N 0.000158977
15 *221:10 *231:252 0.000114854
16 *221:10 *231:258 7.58103e-05
17 *221:12 *224:18 0.00132902
18 *221:12 *226:27 0.00167207
19 wbs_dat_o[3] *636:DIODE 5.33005e-05
20 wbs_dat_o[3] *3850:A 0.00018372
21 wbs_dat_o[4] *221:16 0
22 wbs_dat_o[5] *3850:A 5.05056e-05
23 wbs_dat_o[5] *221:16 0.000145026
24 *543:DIODE *221:10 0.00014072
25 *3750:D *385:DIODE 6.05161e-06
26 *43:17 *221:10 0
27 *45:9 *221:10 0.0001943
28 *46:5 *221:10 0
29 *155:10 *221:10 0.000119919
30 *155:21 *221:10 0.000181562
31 *156:12 *221:10 2.92836e-05
32 *157:12 *221:10 0
33 *169:22 *221:12 0.00152182
34 *170:33 *3850:A 0.00018372
35 *194:34 *221:12 0.000336174
36 *195:30 *221:10 0
37 *200:23 *221:10 0
*RES
1 *3750:X *221:4 9.3 
2 *221:4 *221:10 24 
3 *221:10 *221:12 53.5179 
4 *221:12 *221:16 7.35714 
5 *221:16 *636:DIODE 14.3357 
6 *221:16 *3850:A 16.3 
7 *221:4 *385:DIODE 22.925 
*END

*D_NET *222 0.016115
*CONN
*I *637:DIODE I *D sky130_fd_sc_hd__diode_2
*I *3851:A I *D sky130_fd_sc_hd__buf_12
*I *390:DIODE I *D sky130_fd_sc_hd__diode_2
*I *3751:X O *D sky130_fd_sc_hd__and4b_1
*CAP
1 *637:DIODE 0
2 *3851:A 5.62051e-05
3 *390:DIODE 0
4 *3751:X 0.000342968
5 *222:29 0.000850341
6 *222:19 0.00355341
7 *222:6 0.00310224
8 *222:6 *227:43 6.07835e-05
9 *222:19 *308:DIODE 8.6229e-06
10 *222:19 *227:43 0.000801302
11 *222:19 *232:123 1.51489e-05
12 wbs_dat_o[2] *222:29 0.000114847
13 *3751:D *222:6 0.000178786
14 *117:31 *222:29 0.000209682
15 *139:31 *222:19 0.000213364
16 *157:29 *222:19 4.13595e-05
17 *167:41 *3851:A 1.38323e-05
18 *167:41 *222:29 0.000739278
19 *168:41 *222:29 0.000699806
20 *194:10 *222:19 9.60387e-05
21 *194:24 *222:19 5.74499e-06
22 *197:26 *222:19 2.44318e-05
23 *197:44 *222:19 2.95641e-05
24 *197:44 *222:29 0.000989218
25 *198:57 *3851:A 0.000151012
26 *198:57 *222:29 1.54142e-05
27 *200:57 *3851:A 4.88637e-05
28 *201:27 *222:29 3.97677e-05
29 *204:12 *222:29 8.6229e-06
30 *218:31 *222:19 0.00263642
31 *218:43 *222:19 9.90367e-05
32 *218:43 *222:29 0.000968894
*RES
1 *3751:X *222:6 13.5321 
2 *222:6 *390:DIODE 9.3 
3 *222:6 *222:19 47.6429 
4 *222:19 *222:29 32.7857 
5 *222:29 *3851:A 11.0857 
6 *222:29 *637:DIODE 9.3 
*END

*D_NET *223 0.015738
*CONN
*I *395:DIODE I *D sky130_fd_sc_hd__diode_2
*I *3852:A I *D sky130_fd_sc_hd__buf_12
*I *638:DIODE I *D sky130_fd_sc_hd__diode_2
*I *3752:X O *D sky130_fd_sc_hd__and4b_2
*CAP
1 *395:DIODE 0.000100519
2 *3852:A 1.77455e-05
3 *638:DIODE 0
4 *3752:X 0.000176865
5 *223:28 0.000618278
6 *223:20 0.00150345
7 *223:12 0.00123819
8 *223:8 0.000612656
9 *223:8 *3750:B 8.25843e-06
10 *223:8 *229:58 9.90431e-05
11 *223:20 *225:20 0.00456927
12 wbs_dat_o[2] *223:28 0.000482632
13 wbs_dat_o[5] *3852:A 5.52302e-05
14 *394:DIODE *223:12 8.47076e-05
15 *581:DIODE *223:20 9.58126e-05
16 *3752:D *395:DIODE 7.18158e-05
17 *3752:D *223:8 2.60984e-05
18 *3752:D *223:12 1.90936e-05
19 *3847:A *223:28 2.17996e-05
20 *139:31 *223:12 2.09897e-05
21 *155:21 *395:DIODE 9.23236e-05
22 *155:21 *223:12 0.000206011
23 *167:33 *223:20 0.000210177
24 *168:41 *3852:A 1.38323e-05
25 *168:41 *223:28 1.24368e-05
26 *175:14 *3852:A 0.00010096
27 *175:14 *223:20 0.0048475
28 *175:14 *223:28 0.000104208
29 *183:25 *395:DIODE 4.72259e-05
30 *183:25 *223:12 0.000177228
31 *213:16 *223:20 0.000103646
*RES
1 *3752:X *223:8 15.9786 
2 *223:8 *223:12 11.3036 
3 *223:12 *223:20 48.3393 
4 *223:20 *223:28 8.91071 
5 *223:28 *638:DIODE 9.3 
6 *223:28 *3852:A 10.2464 
7 *223:8 *395:DIODE 16.3536 
*END

*D_NET *224 0.0823968
*CONN
*I *620:DIODE I *D sky130_fd_sc_hd__diode_2
*I *420:DIODE I *D sky130_fd_sc_hd__diode_2
*I *3764:AD[4] I *D CF_SRAM_1024x32
*I *3822:X O *D sky130_fd_sc_hd__buf_4
*CAP
1 *620:DIODE 0.000129402
2 *420:DIODE 0
3 *3764:AD[4] 0.000452573
4 *3822:X 0.000192927
5 *224:30 0.00124748
6 *224:26 0.00480913
7 *224:24 0.00495727
8 *224:18 0.00515499
9 *224:16 0.00423433
10 *224:14 0.00198602
11 *224:12 0.00210645
12 *224:8 0.000465141
13 *620:DIODE *622:DIODE 3.39062e-05
14 *3764:AD[4] *3764:AD[5] 0.0011284
15 *224:8 *235:8 2.12087e-05
16 *224:12 *622:DIODE 1.00631e-05
17 *224:12 *235:12 4.61644e-05
18 *224:14 *235:14 0.00201267
19 *224:18 *226:27 0.00098703
20 *224:18 *235:14 0.015699
21 *224:24 *235:20 0.000657749
22 *224:24 *235:22 0.000874936
23 *224:26 *235:22 0.0135447
24 *224:30 *3764:AD[5] 8.44071e-05
25 *224:30 *235:26 0.000760962
26 wbs_dat_o[26] *224:24 6.8646e-06
27 wbs_dat_o[27] *224:24 0.000122598
28 *619:DIODE *620:DIODE 0
29 *621:DIODE *620:DIODE 0.000138562
30 *621:DIODE *224:12 3.04117e-05
31 *3822:A *224:8 9.90431e-05
32 *3823:A *224:8 5.33005e-05
33 *3841:A *224:24 0.000278347
34 *35:9 *224:12 0.00010804
35 *176:32 *224:24 0
36 *176:32 *224:26 0
37 *177:24 *224:26 1.69115e-05
38 *178:61 *224:26 0.0101909
39 *179:53 *224:24 0.000917312
40 *179:53 *224:26 3.34639e-05
41 *186:25 *224:24 0.000154624
42 *191:34 *224:24 0.000200192
43 *191:34 *224:26 0.0028648
44 *193:20 *224:14 0.00250283
45 *194:34 *224:18 0.00175272
46 *221:12 *224:18 0.00132902
*RES
1 *3822:X *224:8 17.2107 
2 *224:8 *224:12 7.66071 
3 *224:12 *224:14 57.8304 
4 *224:14 *224:16 0.428571 
5 *224:16 *224:18 149.83 
6 *224:18 *224:24 35.3661 
7 *224:24 *224:26 171.491 
8 *224:26 *224:30 20.2321 
9 *224:30 *3764:AD[4] 11.5312 
10 *224:30 *420:DIODE 9.3 
11 *224:8 *620:DIODE 16.5857 
*END

*D_NET *225 0.0189768
*CONN
*I *256:DIODE I *D sky130_fd_sc_hd__diode_2
*I *3853:A I *D sky130_fd_sc_hd__buf_12
*I *639:DIODE I *D sky130_fd_sc_hd__diode_2
*I *3721:X O *D sky130_fd_sc_hd__and4b_2
*CAP
1 *256:DIODE 0.00019983
2 *3853:A 0.000280171
3 *639:DIODE 0
4 *3721:X 0
5 *225:32 0.00169016
6 *225:20 0.00324797
7 *225:18 0.00282186
8 *225:4 0.00118372
9 *256:DIODE *231:50 9.41642e-05
10 *256:DIODE *233:259 9.74665e-05
11 *225:18 *392:DIODE 2.01732e-05
12 *225:18 *229:54 2.05413e-05
13 wbs_dat_o[8] *3853:A 2.30389e-05
14 *255:DIODE *256:DIODE 5.33005e-05
15 *141:31 *225:18 9.93827e-05
16 *148:22 *3853:A 8.51331e-05
17 *148:22 *225:32 0.00195494
18 *150:33 *256:DIODE 9.41642e-05
19 *151:25 *225:32 0.000304825
20 *152:27 *256:DIODE 0.00011333
21 *152:27 *225:18 1.90936e-05
22 *154:25 *3853:A 3.97118e-05
23 *167:33 *225:20 0.00148483
24 *174:41 *225:32 8.61389e-05
25 *175:14 *225:20 0.000114665
26 *177:22 *225:32 4.19624e-06
27 *183:25 *225:18 0.000149697
28 *197:44 *3853:A 2.13947e-05
29 *213:16 *225:20 0.000103646
30 *223:20 *225:20 0.00456927
*RES
1 *3721:X *225:4 9.3 
2 *225:4 *225:18 24.89 
3 *225:18 *225:20 45.7143 
4 *225:20 *225:32 29.6071 
5 *225:32 *639:DIODE 9.3 
6 *225:32 *3853:A 22.4071 
7 *225:4 *256:DIODE 21.8357 
*END

*D_NET *226 0.0206849
*CONN
*I *3854:A I *D sky130_fd_sc_hd__buf_12
*I *640:DIODE I *D sky130_fd_sc_hd__diode_2
*I *261:DIODE I *D sky130_fd_sc_hd__diode_2
*I *3722:X O *D sky130_fd_sc_hd__and4b_2
*CAP
1 *3854:A 6.94345e-05
2 *640:DIODE 0
3 *261:DIODE 0
4 *3722:X 0.000261124
5 *226:31 0.000226191
6 *226:27 0.00136162
7 *226:19 0.00213335
8 *226:12 0.00118961
9 *226:12 *257:DIODE 5.62858e-05
10 *226:19 *228:39 0.000443835
11 *226:27 *227:63 8.6229e-06
12 wbs_dat_o[10] *3854:A 4.6025e-06
13 wbs_dat_o[10] *226:31 6.5737e-05
14 wbs_dat_o[7] *3854:A 0.000142856
15 wbs_dat_o[9] *3854:A 0.000142856
16 wbs_dat_o[9] *226:31 0
17 *260:DIODE *226:12 0.000158455
18 *3804:A *226:27 6.81294e-05
19 *62:13 *226:27 3.87073e-05
20 *63:9 *226:27 0.000293101
21 *117:31 *226:19 0.000207292
22 *143:59 *226:19 3.68898e-05
23 *169:22 *226:27 0.000657143
24 *172:33 *226:27 0
25 *173:12 *226:27 0.000251253
26 *173:49 *226:27 0.000232141
27 *185:27 *226:12 0
28 *194:34 *226:27 0.00114689
29 *195:30 *226:19 0.00134874
30 *196:16 *226:12 0.00022459
31 *196:16 *226:19 0.00489494
32 *199:57 *226:19 0.000993474
33 *200:23 *226:12 0.000226507
34 *200:23 *226:19 0.00114146
35 *221:12 *226:27 0.00167207
36 *224:18 *226:27 0.00098703
*RES
1 *3722:X *226:12 24.8536 
2 *226:12 *261:DIODE 9.3 
3 *226:12 *226:19 46.9464 
4 *226:19 *226:27 47.0893 
5 *226:27 *226:31 7.05357 
6 *226:31 *640:DIODE 13.8 
7 *226:31 *3854:A 15.8893 
*END

*D_NET *227 0.0250243
*CONN
*I *641:DIODE I *D sky130_fd_sc_hd__diode_2
*I *3855:A I *D sky130_fd_sc_hd__buf_12
*I *266:DIODE I *D sky130_fd_sc_hd__diode_2
*I *3723:X O *D sky130_fd_sc_hd__and4b_2
*CAP
1 *641:DIODE 3.64627e-05
2 *3855:A 0
3 *266:DIODE 0
4 *3723:X 0.000308633
5 *227:81 0.00111047
6 *227:63 0.00200423
7 *227:43 0.00207386
8 *227:14 0.00145227
9 *227:14 *274:DIODE 0.000137427
10 *227:14 *229:74 0.000254042
11 *227:14 *229:76 8.76257e-05
12 *227:14 *229:78 9.60939e-05
13 *227:14 *231:264 9.76689e-05
14 *227:43 *376:DIODE 5.52238e-05
15 *227:43 *388:DIODE 0.000180777
16 *227:43 *3749:A_N 9.71197e-05
17 *227:43 *3751:B 2.55806e-05
18 *227:43 *229:68 2.23592e-05
19 *227:43 *229:70 0.00019177
20 *227:43 *229:72 4.08637e-05
21 *227:43 *229:74 5.52238e-05
22 *227:43 *230:116 0.00128772
23 *227:43 *230:118 0.000309266
24 *227:43 *230:139 1.10868e-05
25 *227:43 *230:141 0.000136682
26 *227:43 *231:258 0.000316043
27 *227:43 *231:260 0.000216755
28 *227:43 *231:262 0.000265805
29 *227:43 *231:264 8.86413e-05
30 *227:43 *231:295 5.33005e-05
31 *227:43 *232:107 1.90113e-05
32 *227:43 *232:123 0.000190733
33 *227:43 *232:131 0.000140088
34 *227:43 *234:52 5.97398e-05
35 *227:43 *234:90 3.45503e-05
36 *227:63 *3731:A_N 8.28647e-05
37 *227:63 *3731:B 1.51489e-05
38 *227:63 *230:116 0.000366693
39 *227:63 *231:34 8.28647e-05
40 *227:63 *232:107 0.000933135
41 *227:81 *228:39 0.00221215
42 wbs_dat_o[11] *227:81 0.000312272
43 wbs_dat_o[13] *641:DIODE 0.000136432
44 wbs_dat_o[13] *227:81 9.41642e-05
45 wbs_dat_o[8] *227:81 9.55684e-05
46 *379:DIODE *227:43 9.54798e-06
47 *3748:D *227:43 0.000280602
48 *3751:D *227:43 0.000216127
49 *111:12 *227:14 0.00014784
50 *140:21 *227:43 0.000111763
51 *141:31 *227:81 0.000991293
52 *157:33 *227:63 0.000354098
53 *167:41 *227:81 4.22135e-06
54 *168:55 *227:81 0.000194465
55 *174:41 *227:81 0.00112803
56 *177:22 *227:81 6.99042e-05
57 *195:40 *227:81 0.000318024
58 *196:16 *227:81 0.00230766
59 *199:47 *227:14 9.41642e-05
60 *200:59 *641:DIODE 0.000124245
61 *200:59 *227:81 0.000568772
62 *206:10 *227:43 2.44318e-05
63 *206:35 *227:43 0.00129403
64 *206:35 *227:63 2.14963e-05
65 *207:20 *227:81 8.6229e-06
66 *218:6 *227:43 5.33005e-05
67 *218:31 *227:43 4.25176e-05
68 *222:6 *227:43 6.07835e-05
69 *222:19 *227:43 0.000801302
70 *226:27 *227:63 8.6229e-06
*RES
1 *3723:X *227:14 25.425 
2 *227:14 *266:DIODE 9.3 
3 *227:14 *227:43 48.7054 
4 *227:43 *227:63 37.2589 
5 *227:63 *227:81 48.7918 
6 *227:81 *3855:A 9.3 
7 *227:81 *641:DIODE 10.6571 
*END

*D_NET *228 0.0224446
*CONN
*I *642:DIODE I *D sky130_fd_sc_hd__diode_2
*I *3856:A I *D sky130_fd_sc_hd__buf_12
*I *271:DIODE I *D sky130_fd_sc_hd__diode_2
*I *3724:X O *D sky130_fd_sc_hd__and4b_2
*CAP
1 *642:DIODE 0
2 *3856:A 9.5573e-05
3 *271:DIODE 6.10035e-05
4 *3724:X 0.000462064
5 *228:39 0.000845443
6 *228:27 0.00409777
7 *228:14 0.00387097
8 *228:14 *229:84 9.83388e-05
9 wbs_dat_o[9] *3856:A 6.4974e-06
10 *111:12 *271:DIODE 9.70394e-05
11 *141:31 *228:39 0.000203224
12 *143:41 *228:27 0.000213364
13 *168:55 *3856:A 3.47641e-06
14 *172:33 *228:39 2.11628e-05
15 *175:14 *3856:A 9.90431e-05
16 *182:21 *228:14 2.34969e-05
17 *184:29 *271:DIODE 2.64618e-05
18 *194:24 *228:39 0
19 *195:30 *228:14 1.99881e-05
20 *195:34 *228:27 0.00194402
21 *196:16 *228:27 1.54142e-05
22 *196:16 *228:39 3.18862e-05
23 *197:16 *228:14 0.000477594
24 *197:16 *228:27 0.00294498
25 *197:52 *3856:A 0.00010096
26 *199:57 *228:39 0.00337108
27 *207:20 *228:39 0.000657803
28 *226:19 *228:39 0.000443835
29 *227:81 *228:39 0.00221215
*RES
1 *3724:X *228:14 24.925 
2 *228:14 *271:DIODE 19.6393 
3 *228:14 *228:27 47.3571 
4 *228:27 *228:39 48.3393 
5 *228:39 *3856:A 15.7821 
6 *228:39 *642:DIODE 13.8 
*END

*D_NET *229 0.0315759
*CONN
*I *406:DIODE I *D sky130_fd_sc_hd__diode_2
*I *302:DIODE I *D sky130_fd_sc_hd__diode_2
*I *3731:A_N I *D sky130_fd_sc_hd__and4b_1
*I *381:DIODE I *D sky130_fd_sc_hd__diode_2
*I *247:DIODE I *D sky130_fd_sc_hd__diode_2
*I *3718:A I *D sky130_fd_sc_hd__clkinv_4
*I *391:DIODE I *D sky130_fd_sc_hd__diode_2
*I *3750:A_N I *D sky130_fd_sc_hd__and4b_1
*I *3752:A_N I *D sky130_fd_sc_hd__and4b_2
*I *3721:A_N I *D sky130_fd_sc_hd__and4b_2
*I *3751:A_N I *D sky130_fd_sc_hd__and4b_1
*I *262:DIODE I *D sky130_fd_sc_hd__diode_2
*I *257:DIODE I *D sky130_fd_sc_hd__diode_2
*I *267:DIODE I *D sky130_fd_sc_hd__diode_2
*I *3723:A_N I *D sky130_fd_sc_hd__and4b_2
*I *3722:A_N I *D sky130_fd_sc_hd__and4b_2
*I *272:DIODE I *D sky130_fd_sc_hd__diode_2
*I *3724:A_N I *D sky130_fd_sc_hd__and4b_2
*I *277:DIODE I *D sky130_fd_sc_hd__diode_2
*I *3725:A_N I *D sky130_fd_sc_hd__and4b_2
*I *3726:A_N I *D sky130_fd_sc_hd__and4b_2
*I *3727:A_N I *D sky130_fd_sc_hd__and4b_2
*I *3728:A_N I *D sky130_fd_sc_hd__and4b_2
*I *3729:A_N I *D sky130_fd_sc_hd__and4b_2
*I *282:DIODE I *D sky130_fd_sc_hd__diode_2
*I *287:DIODE I *D sky130_fd_sc_hd__diode_2
*I *292:DIODE I *D sky130_fd_sc_hd__diode_2
*I *3730:A_N I *D sky130_fd_sc_hd__and4b_2
*I *297:DIODE I *D sky130_fd_sc_hd__diode_2
*I *252:DIODE I *D sky130_fd_sc_hd__diode_2
*I *386:DIODE I *D sky130_fd_sc_hd__diode_2
*I *3758:X O *D sky130_fd_sc_hd__clkbuf_4
*CAP
1 *406:DIODE 0
2 *302:DIODE 0.000241307
3 *3731:A_N 0.000132521
4 *381:DIODE 0
5 *247:DIODE 0
6 *3718:A 0.000188354
7 *391:DIODE 0
8 *3750:A_N 0
9 *3752:A_N 0
10 *3721:A_N 0.000112442
11 *3751:A_N 0
12 *262:DIODE 0
13 *257:DIODE 0.00026155
14 *267:DIODE 0
15 *3723:A_N 0.000129425
16 *3722:A_N 0
17 *272:DIODE 0
18 *3724:A_N 0
19 *277:DIODE 0
20 *3725:A_N 0
21 *3726:A_N 2.23707e-05
22 *3727:A_N 0
23 *3728:A_N 0
24 *3729:A_N 0.00024422
25 *282:DIODE 0
26 *287:DIODE 0
27 *292:DIODE 0
28 *3730:A_N 0.00023367
29 *297:DIODE 0.00017025
30 *252:DIODE 7.85258e-05
31 *386:DIODE 0.000361772
32 *3758:X 0
33 *229:313 0.000492201
34 *229:279 0.000381886
35 *229:251 0.000134727
36 *229:207 0.000229498
37 *229:155 0.000430944
38 *229:147 0.000332423
39 *229:143 0.000322391
40 *229:139 0.000289145
41 *229:94 0.00062715
42 *229:92 0.000401841
43 *229:90 0.000261899
44 *229:88 0.000319489
45 *229:86 0.000182
46 *229:84 0.000394954
47 *229:78 0.000444777
48 *229:76 0.000267692
49 *229:74 0.000149458
50 *229:72 0.000392299
51 *229:70 7.31222e-05
52 *229:68 0.000153115
53 *229:58 0.00032981
54 *229:54 0.000312087
55 *229:41 0.000296153
56 *229:39 0.000435153
57 *229:27 0.000626691
58 *229:14 0.000487112
59 *229:10 0.000808008
60 *229:4 0.0011787
61 *297:DIODE *299:DIODE 7.6644e-05
62 *297:DIODE *412:DIODE 7.72745e-05
63 *297:DIODE *231:98 3.17148e-05
64 *302:DIODE *308:DIODE 2.11419e-05
65 *302:DIODE *3732:B 0.000152705
66 *302:DIODE *230:104 0.000139445
67 *302:DIODE *230:106 0.000175892
68 *302:DIODE *230:110 9.90367e-05
69 *302:DIODE *231:20 2.53281e-05
70 *302:DIODE *232:89 5.09746e-05
71 *386:DIODE *3749:A_N 0.000121304
72 *386:DIODE *234:52 5.06562e-05
73 *3721:A_N *233:193 7.61932e-05
74 *3721:A_N *233:202 7.96137e-05
75 *3721:A_N *233:259 9.66977e-05
76 *3723:A_N *231:67 0.000245182
77 *3723:A_N *231:69 0.000183713
78 *3723:A_N *233:186 2.91152e-05
79 *3729:A_N *3729:C 4.17014e-05
80 *3730:A_N *3730:B 0.00014183
81 *3730:A_N *3730:C 0.00048492
82 *3730:A_N *231:98 5.33005e-05
83 *3730:A_N *233:15 0.000259934
84 *3730:A_N *233:35 0.000103553
85 *3731:A_N *3758:A 0.000127765
86 *3731:A_N *230:116 5.93848e-05
87 *3731:A_N *231:34 2.83266e-05
88 *3731:A_N *232:107 1.84093e-05
89 *229:10 *3758:A 5.47001e-05
90 *229:10 *231:34 0.00303098
91 *229:10 *231:44 8.60142e-05
92 *229:14 *231:44 5.47047e-05
93 *229:27 *234:46 2.5737e-05
94 *229:39 *234:46 0
95 *229:54 *233:272 9.49949e-05
96 *229:54 *233:297 9.21418e-06
97 *229:58 *233:259 5.56855e-05
98 *229:58 *233:266 2.05612e-05
99 *229:68 *387:DIODE 5.25337e-05
100 *229:68 *3751:B 5.33005e-05
101 *229:68 *233:206 9.71207e-05
102 *229:70 *258:DIODE 9.8475e-05
103 *229:70 *3751:B 1.24368e-05
104 *229:70 *233:219 1.38323e-05
105 *229:72 *258:DIODE 2.59355e-05
106 *229:74 *258:DIODE 7.48091e-05
107 *229:78 *274:DIODE 2.61099e-05
108 *229:84 *231:84 0.000126778
109 *229:84 *231:86 0.000185394
110 *229:86 *231:86 8.66063e-05
111 *229:86 *231:88 9.90367e-05
112 *229:88 *231:88 0.000227539
113 *229:90 *231:88 8.46829e-05
114 *229:90 *231:90 9.90367e-05
115 *229:92 *231:90 4.38128e-05
116 *229:92 *231:92 0.000357952
117 *229:94 *231:92 0.000386171
118 *229:94 *231:98 9.83442e-05
119 *229:147 *3727:C 6.02874e-05
120 *229:147 *231:148 2.42662e-05
121 *229:147 *231:150 6.37907e-05
122 *229:155 *3729:C 5.57369e-05
123 *229:155 *231:150 0.000159837
124 *229:207 *231:67 1.98839e-05
125 *229:207 *233:186 5.33005e-05
126 *229:313 *3758:A 5.33005e-05
127 *246:DIODE *3723:A_N 0.000224577
128 *260:DIODE *257:DIODE 0
129 *270:DIODE *229:78 0.000135028
130 *270:DIODE *229:84 0.000110141
131 *385:DIODE *386:DIODE 0.000210961
132 *3724:D *229:84 1.13883e-05
133 *3728:D *229:155 5.49544e-05
134 *3729:D *3729:A_N 3.18676e-05
135 *3732:D *302:DIODE 8.7131e-05
136 *3749:D *386:DIODE 2.4905e-05
137 *3752:D *229:58 0.000171813
138 *110:26 *229:39 0.000272371
139 *111:12 *229:207 0.000196269
140 *143:71 *3723:A_N 0.000175892
141 *145:56 *229:27 3.28967e-05
142 *145:56 *229:279 1.36251e-05
143 *146:6 *3718:A 0.00010096
144 *146:15 *3718:A 8.76257e-05
145 *146:15 *229:279 5.52238e-05
146 *150:33 *252:DIODE 0.000137179
147 *150:33 *229:10 0.00323987
148 *150:33 *229:14 5.47047e-05
149 *150:33 *229:39 5.33005e-05
150 *150:33 *229:41 0.000223194
151 *150:33 *229:313 3.7678e-05
152 *150:37 *229:313 0.00022245
153 *152:27 *229:68 0.000141693
154 *155:21 *229:39 0.000159802
155 *155:21 *229:279 0
156 *159:27 *386:DIODE 0
157 *159:27 *229:27 0
158 *159:27 *229:279 0
159 *178:25 *229:139 0.000110844
160 *178:31 *229:27 1.37292e-05
161 *179:27 *229:139 0
162 *183:25 *229:54 0.000163173
163 *184:29 *229:27 4.11173e-05
164 *184:29 *229:39 0
165 *184:29 *229:207 6.72808e-05
166 *185:27 *257:DIODE 0.000249456
167 *196:10 *229:139 5.7234e-05
168 *196:10 *229:143 9.71197e-05
169 *197:10 *229:143 0.000129515
170 *197:10 *229:147 0.00010096
171 *198:12 *229:147 9.83388e-05
172 *198:12 *229:155 4.73286e-05
173 *199:14 *3729:A_N 0.00014285
174 *199:14 *229:155 2.28598e-05
175 *199:47 *3721:A_N 0.000175691
176 *199:47 *229:58 4.08637e-05
177 *199:47 *229:68 5.33005e-05
178 *199:47 *229:143 0.00021528
179 *199:47 *229:147 8.07313e-05
180 *200:23 *257:DIODE 0.000139907
181 *223:8 *229:58 9.90431e-05
182 *225:18 *229:54 2.05413e-05
183 *226:12 *257:DIODE 5.62858e-05
184 *227:14 *229:74 0.000254042
185 *227:14 *229:76 8.76257e-05
186 *227:14 *229:78 9.60939e-05
187 *227:43 *229:68 2.23592e-05
188 *227:43 *229:70 0.00019177
189 *227:43 *229:72 4.08637e-05
190 *227:43 *229:74 5.52238e-05
191 *227:63 *3731:A_N 8.28647e-05
192 *228:14 *229:84 9.83388e-05
*RES
1 *3758:X *229:4 9.3 
2 *229:4 *229:10 33.125 
3 *229:10 *229:14 5.03571 
4 *229:14 *386:DIODE 20.0321 
5 *229:14 *229:27 2.25 
6 *229:27 *229:39 18.875 
7 *229:39 *229:41 2.17857 
8 *229:41 *252:DIODE 10.6571 
9 *229:41 *229:54 11.25 
10 *229:54 *229:58 4.25 
11 *229:58 *229:68 12.0179 
12 *229:68 *229:70 2.17857 
13 *229:70 *229:72 0.535714 
14 *229:72 *229:74 3 
15 *229:74 *229:76 0.946429 
16 *229:76 *229:78 2.58929 
17 *229:78 *229:84 6.73214 
18 *229:84 *229:86 1.76786 
19 *229:86 *229:88 2.17857 
20 *229:88 *229:90 1.76786 
21 *229:90 *229:92 3.82143 
22 *229:92 *229:94 4.64286 
23 *229:94 *297:DIODE 20.9964 
24 *229:94 *3730:A_N 16.9607 
25 *229:94 *292:DIODE 9.3 
26 *229:92 *287:DIODE 9.3 
27 *229:90 *282:DIODE 9.3 
28 *229:88 *229:139 11.8571 
29 *229:139 *229:143 4.25 
30 *229:143 *229:147 4.25 
31 *229:147 *229:155 4.80357 
32 *229:155 *3729:A_N 13.9429 
33 *229:155 *3728:A_N 9.3 
34 *229:147 *3727:A_N 9.3 
35 *229:143 *3726:A_N 9.72857 
36 *229:139 *3725:A_N 9.3 
37 *229:86 *277:DIODE 9.3 
38 *229:84 *3724:A_N 9.3 
39 *229:78 *272:DIODE 9.3 
40 *229:76 *229:207 12.0893 
41 *229:207 *3722:A_N 9.3 
42 *229:207 *3723:A_N 13.9607 
43 *229:74 *267:DIODE 9.3 
44 *229:72 *257:DIODE 23.1214 
45 *229:70 *262:DIODE 9.3 
46 *229:68 *3751:A_N 9.3 
47 *229:58 *229:251 0.428571 
48 *229:251 *3721:A_N 13.1214 
49 *229:251 *3752:A_N 9.3 
50 *229:54 *3750:A_N 9.3 
51 *229:39 *391:DIODE 9.3 
52 *229:27 *229:279 7.58929 
53 *229:279 *3718:A 12.2107 
54 *229:279 *247:DIODE 9.3 
55 *229:10 *381:DIODE 9.3 
56 *229:4 *3731:A_N 21.1929 
57 *229:4 *229:313 3.41071 
58 *229:313 *302:DIODE 24.175 
59 *229:313 *406:DIODE 9.3 
*END

*D_NET *230 0.0293288
*CONN
*I *350:DIODE I *D sky130_fd_sc_hd__diode_2
*I *408:DIODE I *D sky130_fd_sc_hd__diode_2
*I *346:DIODE I *D sky130_fd_sc_hd__diode_2
*I *3742:A_N I *D sky130_fd_sc_hd__and4b_1
*I *3741:A_N I *D sky130_fd_sc_hd__and4b_1
*I *338:DIODE I *D sky130_fd_sc_hd__diode_2
*I *3740:A_N I *D sky130_fd_sc_hd__and4b_1
*I *3739:A_N I *D sky130_fd_sc_hd__and4b_1
*I *334:DIODE I *D sky130_fd_sc_hd__diode_2
*I *3738:A_N I *D sky130_fd_sc_hd__and4b_1
*I *330:DIODE I *D sky130_fd_sc_hd__diode_2
*I *3737:A_N I *D sky130_fd_sc_hd__and4b_1
*I *321:DIODE I *D sky130_fd_sc_hd__diode_2
*I *3736:A_N I *D sky130_fd_sc_hd__and4b_1
*I *3735:A_N I *D sky130_fd_sc_hd__and4b_1
*I *317:DIODE I *D sky130_fd_sc_hd__diode_2
*I *312:DIODE I *D sky130_fd_sc_hd__diode_2
*I *3734:A_N I *D sky130_fd_sc_hd__and4b_1
*I *307:DIODE I *D sky130_fd_sc_hd__diode_2
*I *3733:A_N I *D sky130_fd_sc_hd__and4b_1
*I *405:DIODE I *D sky130_fd_sc_hd__diode_2
*I *3732:A_N I *D sky130_fd_sc_hd__and4b_1
*I *3758:A I *D sky130_fd_sc_hd__clkbuf_4
*I *371:DIODE I *D sky130_fd_sc_hd__diode_2
*I *366:DIODE I *D sky130_fd_sc_hd__diode_2
*I *3747:A_N I *D sky130_fd_sc_hd__and4b_1
*I *3748:A_N I *D sky130_fd_sc_hd__and4b_1
*I *3749:A_N I *D sky130_fd_sc_hd__and4b_1
*I *376:DIODE I *D sky130_fd_sc_hd__diode_2
*I *326:DIODE I *D sky130_fd_sc_hd__diode_2
*I *342:DIODE I *D sky130_fd_sc_hd__diode_2
*I *3759:X O *D sky130_fd_sc_hd__buf_2
*CAP
1 *350:DIODE 0.000110872
2 *408:DIODE 0
3 *346:DIODE 0
4 *3742:A_N 9.12765e-05
5 *3741:A_N 0
6 *338:DIODE 9.12439e-05
7 *3740:A_N 0
8 *3739:A_N 0
9 *334:DIODE 0
10 *3738:A_N 0.000179459
11 *330:DIODE 0
12 *3737:A_N 2.0609e-05
13 *321:DIODE 0
14 *3736:A_N 1.78392e-05
15 *3735:A_N 4.06336e-05
16 *317:DIODE 9.84082e-05
17 *312:DIODE 0
18 *3734:A_N 2.03168e-05
19 *307:DIODE 0
20 *3733:A_N 1.44557e-05
21 *405:DIODE 0.000297562
22 *3732:A_N 0
23 *3758:A 0.000172744
24 *371:DIODE 0
25 *366:DIODE 0
26 *3747:A_N 0
27 *3748:A_N 0.000143874
28 *3749:A_N 0.000319751
29 *376:DIODE 3.92359e-05
30 *326:DIODE 0
31 *342:DIODE 0.000166524
32 *3759:X 0
33 *230:355 0.000391718
34 *230:339 0.000224866
35 *230:141 0.000500098
36 *230:139 0.000382973
37 *230:131 0.000472256
38 *230:118 0.000376488
39 *230:116 0.00188291
40 *230:110 0.00196484
41 *230:106 0.00018256
42 *230:104 0.000495946
43 *230:92 0.000427818
44 *230:88 0.00039432
45 *230:84 0.00040946
46 *230:80 0.000336018
47 *230:78 0.000254822
48 *230:76 0.000507404
49 *230:72 0.000572219
50 *230:66 0.000217943
51 *230:64 0.000183728
52 *230:53 0.000262929
53 *230:47 0.000161544
54 *230:45 0.000468908
55 *230:37 0.000431528
56 *230:33 0.000304421
57 *230:29 0.000170389
58 *230:27 0.000282399
59 *230:23 0.000230944
60 *230:17 0.000280806
61 *230:6 0.000590285
62 *230:4 0.0006287
63 *338:DIODE *347:DIODE 0.000142969
64 *405:DIODE *232:95 7.14469e-05
65 *405:DIODE *234:124 0.000104976
66 *3737:A_N *234:165 5.33433e-05
67 *3742:A_N *3742:B 0.000136958
68 *3748:A_N *3749:C 6.05161e-06
69 *3749:A_N *388:DIODE 2.44318e-05
70 *3749:A_N *231:252 1.44954e-05
71 *3749:A_N *234:52 0.000316506
72 *3749:A_N *234:59 5.71472e-05
73 *3758:A *231:20 9.24721e-06
74 *230:23 *232:51 9.11048e-06
75 *230:23 *234:230 4.38942e-05
76 *230:27 *234:206 1.98839e-05
77 *230:27 *234:230 8.71184e-05
78 *230:29 *234:206 9.41642e-05
79 *230:33 *234:199 0.000144075
80 *230:33 *234:206 0.000211243
81 *230:37 *234:179 1.98839e-05
82 *230:37 *234:199 1.51571e-05
83 *230:66 *234:165 4.43256e-05
84 *230:72 *232:75 1.10169e-05
85 *230:72 *232:77 1.13883e-05
86 *230:72 *234:157 1.59373e-05
87 *230:104 *304:DIODE 3.18676e-05
88 *230:104 *232:89 2.13499e-05
89 *230:104 *234:136 1.55885e-05
90 *230:110 *3732:B 1.39841e-05
91 *230:110 *231:20 1.68667e-05
92 *230:110 *231:34 2.89114e-05
93 *230:116 *231:34 6.8377e-06
94 *230:131 *368:DIODE 1.95625e-05
95 *230:139 *232:123 1.41034e-05
96 *230:139 *232:131 7.57312e-05
97 *230:139 *234:70 0.000177912
98 *230:141 *234:59 4.18895e-05
99 *230:141 *234:66 5.33005e-05
100 *230:141 *234:70 1.16078e-05
101 *230:339 *344:DIODE 5.33005e-05
102 *230:339 *3742:B 1.98839e-05
103 *230:339 *232:39 0.000136676
104 *230:339 *232:51 1.51467e-05
105 *230:339 *234:241 0.000218404
106 *302:DIODE *230:104 0.000139445
107 *302:DIODE *230:106 0.000175892
108 *302:DIODE *230:110 9.90367e-05
109 *305:DIODE *230:110 1.74352e-05
110 *310:DIODE *405:DIODE 6.90348e-06
111 *315:DIODE *230:88 1.24368e-05
112 *315:DIODE *230:92 5.22665e-05
113 *329:DIODE *230:53 4.6025e-06
114 *329:DIODE *230:64 5.41048e-05
115 *345:DIODE *338:DIODE 1.90936e-05
116 *384:DIODE *3749:A_N 8.6229e-06
117 *386:DIODE *3749:A_N 0.000121304
118 *3731:A_N *3758:A 0.000127765
119 *3731:A_N *230:116 5.93848e-05
120 *3731:D *230:110 8.90544e-05
121 *3734:D *230:84 1.14548e-05
122 *3735:D *230:76 4.22246e-05
123 *3736:D *230:66 5.52238e-05
124 *3736:D *230:72 9.90814e-05
125 *3739:D *230:27 0.000300634
126 *3739:D *230:29 3.37161e-05
127 *3739:D *230:33 6.20302e-05
128 *3740:D *230:27 6.44047e-05
129 *3741:D *230:23 1.86695e-05
130 *3747:D *230:139 0.000155249
131 *3749:D *3748:A_N 1.578e-05
132 *3759:A *230:355 9.37606e-06
133 *3761:A *350:DIODE 9.41642e-05
134 *3761:A *230:355 0.000140714
135 *3843:A *230:339 8.43535e-06
136 *114:11 *338:DIODE 1.3409e-05
137 *117:11 *230:17 3.51317e-05
138 *117:11 *230:23 2.93304e-05
139 *122:33 *230:92 1.36327e-05
140 *125:61 *230:53 0.000402784
141 *129:17 *230:27 5.49544e-05
142 *131:11 *230:17 2.30339e-05
143 *131:11 *230:23 4.2313e-06
144 *138:39 *3749:A_N 1.94879e-05
145 *139:31 *230:45 9.2539e-06
146 *140:21 *338:DIODE 8.51829e-05
147 *140:21 *230:116 0.000103646
148 *143:41 *230:72 4.82947e-05
149 *143:41 *230:76 0.000100349
150 *143:41 *230:78 5.41609e-05
151 *143:41 *230:80 3.67142e-05
152 *143:41 *230:84 0.000121901
153 *143:41 *230:88 0.000118286
154 *143:41 *230:92 7.68551e-05
155 *143:41 *230:104 0.000214017
156 *148:34 *350:DIODE 7.29646e-05
157 *150:33 *3758:A 9.77072e-05
158 *150:37 *342:DIODE 0.000221058
159 *150:37 *405:DIODE 0.000175892
160 *150:37 *230:6 0.00046978
161 *150:37 *230:355 0.000220306
162 *151:35 *350:DIODE 7.29646e-05
163 *157:29 *230:131 7.35637e-05
164 *157:49 *230:45 6.58597e-05
165 *157:49 *230:47 7.1344e-05
166 *157:49 *230:53 7.00374e-05
167 *159:27 *3748:A_N 0.000180387
168 *159:27 *3749:A_N 9.20464e-06
169 *160:29 *230:131 4.67962e-05
170 *194:10 *230:139 9.76435e-06
171 *194:24 *230:139 9.41642e-05
172 *201:10 *230:110 0.000166262
173 *201:23 *230:104 1.24368e-05
174 *201:23 *230:106 7.34839e-05
175 *201:23 *230:110 2.89016e-05
176 *203:14 *230:104 9.71197e-05
177 *204:23 *230:45 0.000516299
178 *204:23 *230:47 0.000142004
179 *204:23 *230:53 0.000534229
180 *205:10 *317:DIODE 2.03044e-05
181 *207:10 *230:76 0.000183713
182 *208:14 *3737:A_N 4.72917e-05
183 *208:14 *230:66 6.57914e-05
184 *208:14 *230:72 3.77662e-05
185 *209:14 *3738:A_N 3.6355e-05
186 *209:14 *230:45 0.000389727
187 *210:14 *230:37 0.000186662
188 *212:18 *230:23 6.47602e-05
189 *212:18 *230:27 2.36643e-05
190 *218:6 *3748:A_N 8.64516e-06
191 *218:31 *230:131 9.39059e-05
192 *221:10 *3749:A_N 0.000158977
193 *227:43 *376:DIODE 5.52238e-05
194 *227:43 *3749:A_N 9.71197e-05
195 *227:43 *230:116 0.00128772
196 *227:43 *230:118 0.000309266
197 *227:43 *230:139 1.10868e-05
198 *227:43 *230:141 0.000136682
199 *227:63 *230:116 0.000366693
200 *229:10 *3758:A 5.47001e-05
201 *229:313 *3758:A 5.33005e-05
*RES
1 *3759:X *230:4 9.3 
2 *230:4 *230:6 4.64286 
3 *230:6 *342:DIODE 11.4786 
4 *230:6 *230:17 5.83929 
5 *230:17 *230:23 6.58929 
6 *230:23 *230:27 4.25 
7 *230:27 *230:29 0.946429 
8 *230:29 *230:33 3.83929 
9 *230:33 *230:37 3.32143 
10 *230:37 *230:45 16 
11 *230:45 *230:47 1.35714 
12 *230:47 *230:53 10.2857 
13 *230:53 *326:DIODE 13.8 
14 *230:53 *230:64 6.44643 
15 *230:64 *230:66 1.35714 
16 *230:66 *230:72 3.96429 
17 *230:72 *230:76 5.48214 
18 *230:76 *230:78 1.35714 
19 *230:78 *230:80 0.946429 
20 *230:80 *230:84 3.83929 
21 *230:84 *230:88 2.60714 
22 *230:88 *230:92 3.83929 
23 *230:92 *230:104 5.35714 
24 *230:104 *230:106 1.76786 
25 *230:106 *230:110 8.32143 
26 *230:110 *230:116 27.9464 
27 *230:116 *230:118 3 
28 *230:118 *376:DIODE 9.83571 
29 *230:118 *230:131 11.5536 
30 *230:131 *230:139 6.33929 
31 *230:139 *230:141 1.35714 
32 *230:141 *3749:A_N 34.55 
33 *230:141 *3748:A_N 21.0321 
34 *230:139 *3747:A_N 9.3 
35 *230:131 *366:DIODE 9.3 
36 *230:116 *371:DIODE 9.3 
37 *230:110 *3758:A 16.9964 
38 *230:106 *3732:A_N 9.3 
39 *230:104 *405:DIODE 22.675 
40 *230:92 *3733:A_N 9.72857 
41 *230:88 *307:DIODE 9.3 
42 *230:84 *3734:A_N 9.72857 
43 *230:80 *312:DIODE 9.3 
44 *230:78 *317:DIODE 19.6393 
45 *230:76 *3735:A_N 10.0321 
46 *230:72 *3736:A_N 9.72857 
47 *230:66 *321:DIODE 9.3 
48 *230:64 *3737:A_N 10.2464 
49 *230:47 *330:DIODE 9.3 
50 *230:45 *3738:A_N 20.8536 
51 *230:37 *334:DIODE 9.3 
52 *230:33 *3739:A_N 9.3 
53 *230:29 *3740:A_N 9.3 
54 *230:27 *338:DIODE 20.2464 
55 *230:23 *3741:A_N 9.3 
56 *230:17 *230:339 7.625 
57 *230:339 *3742:A_N 11.0857 
58 *230:339 *346:DIODE 9.3 
59 *230:4 *230:355 3.82143 
60 *230:355 *408:DIODE 9.3 
61 *230:355 *350:DIODE 20.2821 
*END

*D_NET *231 0.0347554
*CONN
*I *304:DIODE I *D sky130_fd_sc_hd__diode_2
*I *410:DIODE I *D sky130_fd_sc_hd__diode_2
*I *3731:C I *D sky130_fd_sc_hd__and4b_1
*I *383:DIODE I *D sky130_fd_sc_hd__diode_2
*I *388:DIODE I *D sky130_fd_sc_hd__diode_2
*I *393:DIODE I *D sky130_fd_sc_hd__diode_2
*I *254:DIODE I *D sky130_fd_sc_hd__diode_2
*I *3751:C I *D sky130_fd_sc_hd__and4b_1
*I *264:DIODE I *D sky130_fd_sc_hd__diode_2
*I *269:DIODE I *D sky130_fd_sc_hd__diode_2
*I *274:DIODE I *D sky130_fd_sc_hd__diode_2
*I *3750:C I *D sky130_fd_sc_hd__and4b_1
*I *3752:C I *D sky130_fd_sc_hd__and4b_2
*I *3721:C I *D sky130_fd_sc_hd__and4b_2
*I *3722:C I *D sky130_fd_sc_hd__and4b_2
*I *3723:C I *D sky130_fd_sc_hd__and4b_2
*I *3724:C I *D sky130_fd_sc_hd__and4b_2
*I *279:DIODE I *D sky130_fd_sc_hd__diode_2
*I *284:DIODE I *D sky130_fd_sc_hd__diode_2
*I *3720:B I *D sky130_fd_sc_hd__and2_4
*I *250:DIODE I *D sky130_fd_sc_hd__diode_2
*I *289:DIODE I *D sky130_fd_sc_hd__diode_2
*I *3727:C I *D sky130_fd_sc_hd__and4b_2
*I *3728:C I *D sky130_fd_sc_hd__and4b_2
*I *3729:C I *D sky130_fd_sc_hd__and4b_2
*I *3726:C I *D sky130_fd_sc_hd__and4b_2
*I *294:DIODE I *D sky130_fd_sc_hd__diode_2
*I *3730:C I *D sky130_fd_sc_hd__and4b_2
*I *299:DIODE I *D sky130_fd_sc_hd__diode_2
*I *3725:C I *D sky130_fd_sc_hd__and4b_2
*I *259:DIODE I *D sky130_fd_sc_hd__diode_2
*I *3760:X O *D sky130_fd_sc_hd__buf_2
*CAP
1 *304:DIODE 0.000209717
2 *410:DIODE 0
3 *3731:C 0
4 *383:DIODE 0
5 *388:DIODE 5.1496e-05
6 *393:DIODE 0
7 *254:DIODE 0
8 *3751:C 0
9 *264:DIODE 0
10 *269:DIODE 0
11 *274:DIODE 0.000277712
12 *3750:C 0
13 *3752:C 0
14 *3721:C 0
15 *3722:C 0
16 *3723:C 0
17 *3724:C 0
18 *279:DIODE 0
19 *284:DIODE 0
20 *3720:B 0.0001045
21 *250:DIODE 0
22 *289:DIODE 0.000190937
23 *3727:C 2.76483e-05
24 *3728:C 1.11423e-05
25 *3729:C 0.000361071
26 *3726:C 0
27 *294:DIODE 0
28 *3730:C 0.000345507
29 *299:DIODE 5.10669e-05
30 *3725:C 0.000379773
31 *259:DIODE 0.000213558
32 *3760:X 2.98113e-05
33 *231:321 0.000272278
34 *231:295 7.59882e-05
35 *231:264 0.000530594
36 *231:262 0.000473626
37 *231:260 0.000389868
38 *231:258 0.000448563
39 *231:252 0.000399813
40 *231:194 0.00033038
41 *231:179 0.000509702
42 *231:150 0.000504364
43 *231:148 0.000255819
44 *231:142 0.000223213
45 *231:133 0.000126982
46 *231:98 0.000454538
47 *231:92 0.000181467
48 *231:90 0.000240108
49 *231:88 9.65171e-05
50 *231:86 0.000124132
51 *231:84 0.000205746
52 *231:69 0.000729077
53 *231:67 0.000529539
54 *231:65 0.000611581
55 *231:50 0.000792504
56 *231:48 0.000608922
57 *231:46 0.000392279
58 *231:44 0.000561959
59 *231:34 0.00282493
60 *231:20 0.002731
61 *231:8 0.000379355
62 *259:DIODE *234:35 9.83442e-05
63 *299:DIODE *412:DIODE 5.01117e-05
64 *304:DIODE *232:89 5.33005e-05
65 *304:DIODE *232:97 9.41642e-05
66 *304:DIODE *234:136 9.34707e-05
67 *388:DIODE *234:52 5.52302e-05
68 *3720:B *249:DIODE 0
69 *3720:B *3720:A 5.71472e-05
70 *3725:C *233:82 0.000358126
71 *231:20 *308:DIODE 9.54798e-06
72 *231:20 *3732:B 3.31279e-05
73 *231:34 *3731:B 0.000137561
74 *231:34 *232:107 8.6229e-06
75 *231:34 *233:303 2.53281e-05
76 *231:34 *234:90 4.37721e-05
77 *231:44 *234:46 6.2824e-05
78 *231:44 *234:52 8.6229e-06
79 *231:48 *3750:B 0.000178847
80 *231:48 *233:266 0.000163455
81 *231:50 *233:202 0.000126144
82 *231:50 *233:259 8.36064e-05
83 *231:50 *233:266 5.33005e-05
84 *231:65 *233:193 0.000341662
85 *231:65 *233:202 5.52302e-05
86 *231:67 *233:186 2.77289e-05
87 *231:67 *233:193 5.52238e-05
88 *231:86 *233:74 0.00022936
89 *231:88 *233:67 0.000139913
90 *231:88 *233:74 0.000258011
91 *231:90 *233:67 0.000140933
92 *231:92 *233:35 0.000141729
93 *231:92 *233:60 0.000386144
94 *231:92 *233:67 0.000214192
95 *231:98 *412:DIODE 2.39876e-05
96 *231:98 *233:35 0.000141734
97 *231:98 *234:8 5.80706e-06
98 *231:148 *3727:B 5.68722e-05
99 *231:148 *233:91 4.18895e-05
100 *231:148 *233:93 0.000344611
101 *231:321 *232:97 0.000264057
102 *246:DIODE *231:69 2.14757e-05
103 *251:DIODE *3720:B 2.44318e-05
104 *255:DIODE *259:DIODE 7.14469e-05
105 *256:DIODE *231:50 9.41642e-05
106 *285:DIODE *231:133 0
107 *297:DIODE *299:DIODE 7.6644e-05
108 *297:DIODE *231:98 3.17148e-05
109 *302:DIODE *231:20 2.53281e-05
110 *310:DIODE *304:DIODE 4.46186e-06
111 *384:DIODE *231:44 2.88045e-05
112 *384:DIODE *231:252 7.11841e-05
113 *385:DIODE *231:44 7.53109e-06
114 *3723:A_N *231:67 0.000245182
115 *3723:A_N *231:69 0.000183713
116 *3724:D *231:84 3.04311e-05
117 *3725:D *231:84 2.02926e-05
118 *3726:D *231:194 0
119 *3728:D *3729:C 1.24368e-05
120 *3728:D *231:150 4.25176e-05
121 *3729:A_N *3729:C 4.17014e-05
122 *3729:D *3729:C 5.52238e-05
123 *3730:A_N *3730:C 0.00048492
124 *3730:A_N *231:98 5.33005e-05
125 *3731:A_N *231:34 2.83266e-05
126 *3731:D *231:20 3.58016e-05
127 *3749:A_N *388:DIODE 2.44318e-05
128 *3749:A_N *231:252 1.44954e-05
129 *3750:D *231:44 1.21258e-05
130 *3750:D *231:46 1.25212e-05
131 *3758:A *231:20 9.24721e-06
132 *114:19 *231:84 2.38651e-06
133 *115:19 *231:194 0
134 *116:19 *231:133 0
135 *116:19 *231:142 0
136 *116:19 *231:194 0
137 *117:31 *299:DIODE 0
138 *120:24 *231:8 4.68689e-05
139 *120:24 *231:20 0.000123477
140 *121:19 *304:DIODE 5.58316e-05
141 *138:39 *231:252 2.09826e-05
142 *143:59 *259:DIODE 3.72472e-05
143 *144:30 *231:84 0.000189696
144 *145:42 *3720:B 0.000232399
145 *145:42 *231:194 2.32517e-05
146 *150:33 *289:DIODE 0.000141931
147 *150:33 *231:44 5.96516e-05
148 *150:37 *304:DIODE 0.000292492
149 *150:37 *231:321 0.000264057
150 *152:27 *259:DIODE 0
151 *155:21 *231:252 0.000228006
152 *155:21 *231:258 7.52178e-05
153 *178:25 *231:133 6.95299e-05
154 *178:25 *231:142 1.87955e-05
155 *178:25 *231:179 2.19106e-05
156 *178:25 *231:194 2.17983e-05
157 *182:21 *231:84 0.000260418
158 *184:43 *231:8 1.02504e-05
159 *184:47 *304:DIODE 0.000108242
160 *185:27 *259:DIODE 4.97282e-05
161 *197:10 *231:133 0.000148903
162 *199:14 *3729:C 9.76491e-05
163 *199:47 *3725:C 5.23296e-05
164 *199:47 *231:69 8.43535e-06
165 *199:47 *231:148 0.000316184
166 *199:47 *231:179 0
167 *218:43 *231:20 0
168 *221:10 *231:252 0.000114854
169 *221:10 *231:258 7.58103e-05
170 *227:14 *274:DIODE 0.000137427
171 *227:14 *231:264 9.76689e-05
172 *227:43 *388:DIODE 0.000180777
173 *227:43 *231:258 0.000316043
174 *227:43 *231:260 0.000216755
175 *227:43 *231:262 0.000265805
176 *227:43 *231:264 8.86413e-05
177 *227:43 *231:295 5.33005e-05
178 *227:63 *231:34 8.28647e-05
179 *229:10 *231:34 0.00303098
180 *229:10 *231:44 8.60142e-05
181 *229:14 *231:44 5.47047e-05
182 *229:78 *274:DIODE 2.61099e-05
183 *229:84 *231:84 0.000126778
184 *229:84 *231:86 0.000185394
185 *229:86 *231:86 8.66063e-05
186 *229:86 *231:88 9.90367e-05
187 *229:88 *231:88 0.000227539
188 *229:90 *231:88 8.46829e-05
189 *229:90 *231:90 9.90367e-05
190 *229:92 *231:90 4.38128e-05
191 *229:92 *231:92 0.000357952
192 *229:94 *231:92 0.000386171
193 *229:94 *231:98 9.83442e-05
194 *229:147 *3727:C 6.02874e-05
195 *229:147 *231:148 2.42662e-05
196 *229:147 *231:150 6.37907e-05
197 *229:155 *3729:C 5.57369e-05
198 *229:155 *231:150 0.000159837
199 *229:207 *231:67 1.98839e-05
200 *230:104 *304:DIODE 3.18676e-05
201 *230:110 *231:20 1.68667e-05
202 *230:110 *231:34 2.89114e-05
203 *230:116 *231:34 6.8377e-06
*RES
1 *3760:X *231:8 14.5321 
2 *231:8 *231:20 9.5 
3 *231:20 *231:34 44.5 
4 *231:34 *231:44 13.9821 
5 *231:44 *231:46 0.946429 
6 *231:46 *231:48 3.82143 
7 *231:48 *231:50 3.82143 
8 *231:50 *259:DIODE 21.8 
9 *231:50 *231:65 3.82143 
10 *231:65 *231:67 4.23214 
11 *231:67 *231:69 2.58929 
12 *231:69 *3725:C 14.3536 
13 *231:69 *231:84 13.8214 
14 *231:84 *231:86 2.58929 
15 *231:86 *231:88 3.82143 
16 *231:88 *231:90 1.35714 
17 *231:90 *231:92 7.10714 
18 *231:92 *231:98 6.58929 
19 *231:98 *299:DIODE 15.1393 
20 *231:98 *3730:C 19.9607 
21 *231:92 *294:DIODE 9.3 
22 *231:90 *231:133 7.05357 
23 *231:133 *3726:C 13.8 
24 *231:133 *231:142 0.732143 
25 *231:142 *231:148 9.16071 
26 *231:148 *231:150 3.41071 
27 *231:150 *3729:C 14.8 
28 *231:150 *3728:C 9.72857 
29 *231:148 *3727:C 10.2643 
30 *231:142 *231:179 1.33929 
31 *231:179 *289:DIODE 16.3893 
32 *231:179 *231:194 8 
33 *231:194 *250:DIODE 9.3 
34 *231:194 *3720:B 12.5143 
35 *231:88 *284:DIODE 9.3 
36 *231:86 *279:DIODE 9.3 
37 *231:84 *3724:C 9.3 
38 *231:67 *3723:C 9.3 
39 *231:65 *3722:C 9.3 
40 *231:50 *3721:C 9.3 
41 *231:48 *3752:C 9.3 
42 *231:46 *3750:C 9.3 
43 *231:44 *231:252 7.66071 
44 *231:252 *231:258 8.94643 
45 *231:258 *231:260 2.17857 
46 *231:260 *231:262 3 
47 *231:262 *231:264 3.41071 
48 *231:264 *274:DIODE 12.7107 
49 *231:264 *269:DIODE 9.3 
50 *231:262 *264:DIODE 9.3 
51 *231:260 *3751:C 9.3 
52 *231:258 *254:DIODE 9.3 
53 *231:252 *231:295 5.03571 
54 *231:295 *393:DIODE 9.3 
55 *231:295 *388:DIODE 11.0679 
56 *231:34 *383:DIODE 9.3 
57 *231:20 *3731:C 9.3 
58 *231:8 *231:321 7.08929 
59 *231:321 *410:DIODE 9.3 
60 *231:321 *304:DIODE 23.7821 
*END

*D_NET *232 0.029763
*CONN
*I *411:DIODE I *D sky130_fd_sc_hd__diode_2
*I *3742:C I *D sky130_fd_sc_hd__and4b_1
*I *348:DIODE I *D sky130_fd_sc_hd__diode_2
*I *344:DIODE I *D sky130_fd_sc_hd__diode_2
*I *3741:C I *D sky130_fd_sc_hd__and4b_1
*I *340:DIODE I *D sky130_fd_sc_hd__diode_2
*I *3740:C I *D sky130_fd_sc_hd__and4b_1
*I *3739:C I *D sky130_fd_sc_hd__and4b_1
*I *336:DIODE I *D sky130_fd_sc_hd__diode_2
*I *332:DIODE I *D sky130_fd_sc_hd__diode_2
*I *3738:C I *D sky130_fd_sc_hd__and4b_1
*I *328:DIODE I *D sky130_fd_sc_hd__diode_2
*I *3737:C I *D sky130_fd_sc_hd__and4b_1
*I *323:DIODE I *D sky130_fd_sc_hd__diode_2
*I *3736:C I *D sky130_fd_sc_hd__and4b_1
*I *319:DIODE I *D sky130_fd_sc_hd__diode_2
*I *3735:C I *D sky130_fd_sc_hd__and4b_1
*I *314:DIODE I *D sky130_fd_sc_hd__diode_2
*I *3734:C I *D sky130_fd_sc_hd__and4b_1
*I *309:DIODE I *D sky130_fd_sc_hd__diode_2
*I *3733:C I *D sky130_fd_sc_hd__and4b_1
*I *3732:C I *D sky130_fd_sc_hd__and4b_1
*I *409:DIODE I *D sky130_fd_sc_hd__diode_2
*I *3760:A I *D sky130_fd_sc_hd__buf_2
*I *373:DIODE I *D sky130_fd_sc_hd__diode_2
*I *368:DIODE I *D sky130_fd_sc_hd__diode_2
*I *378:DIODE I *D sky130_fd_sc_hd__diode_2
*I *3747:C I *D sky130_fd_sc_hd__and4b_1
*I *3748:C I *D sky130_fd_sc_hd__and4b_1
*I *3749:C I *D sky130_fd_sc_hd__and4b_1
*I *352:DIODE I *D sky130_fd_sc_hd__diode_2
*I *3761:X O *D sky130_fd_sc_hd__buf_2
*CAP
1 *411:DIODE 0.000169266
2 *3742:C 0
3 *348:DIODE 0.000136676
4 *344:DIODE 1.58771e-05
5 *3741:C 0
6 *340:DIODE 0
7 *3740:C 0.000165111
8 *3739:C 0
9 *336:DIODE 0
10 *332:DIODE 0
11 *3738:C 0
12 *328:DIODE 0
13 *3737:C 0
14 *323:DIODE 0
15 *3736:C 0
16 *319:DIODE 0
17 *3735:C 0
18 *314:DIODE 0
19 *3734:C 0
20 *309:DIODE 0
21 *3733:C 0
22 *3732:C 0
23 *409:DIODE 0
24 *3760:A 2.07973e-05
25 *373:DIODE 0
26 *368:DIODE 0.000170287
27 *378:DIODE 0
28 *3747:C 0
29 *3748:C 0
30 *3749:C 0.000337053
31 *352:DIODE 0.000123104
32 *3761:X 3.96417e-05
33 *232:131 0.000575443
34 *232:123 0.000509618
35 *232:111 0.000295115
36 *232:109 0.000246574
37 *232:107 0.000635419
38 *232:97 0.000722553
39 *232:95 0.000290705
40 *232:89 0.000575202
41 *232:87 0.000582273
42 *232:85 0.000378213
43 *232:83 0.000376073
44 *232:81 0.000375497
45 *232:79 0.000314895
46 *232:77 0.000364589
47 *232:75 0.000430536
48 *232:73 0.000380842
49 *232:71 0.000318972
50 *232:69 0.000380972
51 *232:67 0.000394021
52 *232:65 0.0003198
53 *232:63 0.000419075
54 *232:61 0.000332113
55 *232:59 0.000569404
56 *232:51 0.000809922
57 *232:39 0.00058328
58 *232:35 9.41113e-05
59 *232:29 0.00060776
60 *232:12 0.000603325
61 *232:10 0.000141025
62 *232:8 0.000340796
63 *3740:C *234:206 0.00016641
64 *3740:C *234:230 5.49544e-05
65 *3749:C *3748:B 1.83136e-05
66 *232:61 *234:206 0.000126566
67 *232:63 *234:179 0.000129515
68 *232:63 *234:199 0.000185824
69 *232:63 *234:206 5.71472e-05
70 *232:65 *234:179 0.000255544
71 *232:67 *234:179 0.000166861
72 *232:69 *234:172 0.000346511
73 *232:69 *234:179 5.68713e-05
74 *232:71 *234:172 0.000172309
75 *232:73 *234:165 0.000262877
76 *232:73 *234:172 5.71472e-05
77 *232:75 *234:165 0.00014183
78 *232:77 *234:157 0.000296728
79 *232:79 *234:157 0.000175251
80 *232:81 *234:150 0.000262877
81 *232:81 *234:157 5.71472e-05
82 *232:83 *234:150 0.000259934
83 *232:85 *234:143 0.000262308
84 *232:85 *234:150 5.71472e-05
85 *232:87 *234:143 0.00025782
86 *232:89 *234:136 0.000229783
87 *232:89 *234:143 5.65955e-05
88 *232:107 *3731:B 5.49489e-05
89 *232:107 *233:303 0.000137235
90 *232:107 *234:90 0.00208666
91 *232:109 *234:90 0.000268403
92 *232:111 *234:90 9.60875e-05
93 *232:123 *234:90 0.000232426
94 *232:131 *3748:B 6.52524e-05
95 *232:131 *234:90 5.69605e-05
96 *302:DIODE *232:89 5.09746e-05
97 *304:DIODE *232:89 5.33005e-05
98 *304:DIODE *232:97 9.41642e-05
99 *349:DIODE *348:DIODE 2.01732e-05
100 *349:DIODE *232:51 1.98218e-05
101 *353:DIODE *352:DIODE 4.15183e-05
102 *353:DIODE *232:12 1.1594e-05
103 *356:DIODE *232:10 0
104 *379:DIODE *232:123 2.26232e-05
105 *405:DIODE *232:95 7.14469e-05
106 *3731:A_N *232:107 1.84093e-05
107 *3732:D *232:89 8.30599e-05
108 *3736:D *232:75 4.19343e-05
109 *3741:D *232:39 2.3541e-05
110 *3741:D *232:51 1.00332e-05
111 *3742:D *352:DIODE 6.67451e-05
112 *3747:D *232:123 5.81735e-05
113 *3748:A_N *3749:C 6.05161e-06
114 *3749:D *3749:C 1.54175e-05
115 *3843:A *344:DIODE 2.12005e-05
116 *3843:A *352:DIODE 0.000439585
117 *3843:A *232:39 7.20217e-06
118 *110:16 *411:DIODE 0.000185401
119 *113:25 *232:123 6.6013e-05
120 *114:11 *232:59 0.000258926
121 *117:11 *232:51 6.19104e-05
122 *120:24 *232:107 0
123 *121:19 *232:95 1.54199e-05
124 *124:21 *368:DIODE 5.05056e-05
125 *131:11 *348:DIODE 0.000147702
126 *132:11 *411:DIODE 6.98302e-05
127 *132:11 *232:10 0.000199345
128 *132:11 *232:12 9.54798e-06
129 *135:21 *232:123 3.27526e-05
130 *138:39 *232:29 0
131 *139:13 *348:DIODE 0.000155212
132 *150:33 *232:107 0.00026974
133 *150:35 *3760:A 1.00733e-05
134 *150:37 *348:DIODE 0.000136432
135 *150:37 *232:97 3.47395e-05
136 *150:37 *232:107 2.2816e-05
137 *150:45 *352:DIODE 1.83776e-05
138 *150:45 *232:10 5.03223e-05
139 *150:45 *232:12 9.60337e-06
140 *157:49 *232:59 0.000151898
141 *159:27 *232:131 1.90114e-05
142 *161:27 *368:DIODE 3.84059e-05
143 *172:33 *232:29 0
144 *178:33 *232:97 6.42095e-05
145 *178:33 *232:107 0.000144791
146 *179:49 *232:8 5.49544e-05
147 *184:43 *232:107 5.49544e-05
148 *184:47 *232:97 0.000306304
149 *187:22 *348:DIODE 0.000136432
150 *194:10 *232:123 2.25101e-05
151 *194:24 *232:123 4.40545e-06
152 *201:33 *232:59 0.000120229
153 *204:23 *232:51 0
154 *206:10 *232:109 8.36572e-05
155 *206:10 *232:111 8.27532e-05
156 *206:10 *232:123 0.000221634
157 *206:35 *232:107 0.000632402
158 *206:35 *232:109 0.000156571
159 *209:14 *232:51 0.000432834
160 *209:14 *232:59 0.000230206
161 *212:18 *232:39 1.21258e-05
162 *212:18 *232:51 5.13403e-05
163 *215:18 *352:DIODE 0.000311934
164 *218:6 *3749:C 2.33546e-05
165 *218:31 *368:DIODE 0.000165683
166 *218:31 *232:123 6.24158e-05
167 *222:19 *232:123 1.51489e-05
168 *227:43 *232:107 1.90113e-05
169 *227:43 *232:123 0.000190733
170 *227:43 *232:131 0.000140088
171 *227:63 *232:107 0.000933135
172 *230:23 *232:51 9.11048e-06
173 *230:72 *232:75 1.10169e-05
174 *230:72 *232:77 1.13883e-05
175 *230:104 *232:89 2.13499e-05
176 *230:131 *368:DIODE 1.95625e-05
177 *230:139 *232:123 1.41034e-05
178 *230:139 *232:131 7.57312e-05
179 *230:339 *344:DIODE 5.33005e-05
180 *230:339 *232:39 0.000136676
181 *230:339 *232:51 1.51467e-05
182 *231:34 *232:107 8.6229e-06
183 *231:321 *232:97 0.000264057
*RES
1 *3761:X *232:8 14.3357 
2 *232:8 *232:10 2.85714 
3 *232:10 *232:12 0.276786 
4 *232:12 *352:DIODE 18.6125 
5 *232:12 *232:29 7.58767 
6 *232:29 *232:35 4.5 
7 *232:35 *232:39 1.78571 
8 *232:39 *232:51 17.0536 
9 *232:51 *232:59 15.25 
10 *232:59 *232:61 1.35714 
11 *232:61 *232:63 3.41071 
12 *232:63 *232:65 2.58929 
13 *232:65 *232:67 1.76786 
14 *232:67 *232:69 3.82143 
15 *232:69 *232:71 1.76786 
16 *232:71 *232:73 3 
17 *232:73 *232:75 2.58929 
18 *232:75 *232:77 3.41071 
19 *232:77 *232:79 1.76786 
20 *232:79 *232:81 3 
21 *232:81 *232:83 2.58929 
22 *232:83 *232:85 3 
23 *232:85 *232:87 2.58929 
24 *232:87 *232:89 5.46429 
25 *232:89 *232:95 10.9464 
26 *232:95 *232:97 4.23214 
27 *232:97 *232:107 34.9107 
28 *232:107 *232:109 2.58929 
29 *232:109 *232:111 0.946429 
30 *232:111 *232:123 16.125 
31 *232:123 *232:131 13.5179 
32 *232:131 *3749:C 21.9607 
33 *232:131 *3748:C 9.3 
34 *232:123 *3747:C 9.3 
35 *232:111 *378:DIODE 9.3 
36 *232:109 *368:DIODE 21.4607 
37 *232:107 *373:DIODE 9.3 
38 *232:97 *3760:A 9.72857 
39 *232:95 *409:DIODE 9.3 
40 *232:89 *3732:C 9.3 
41 *232:87 *3733:C 9.3 
42 *232:85 *309:DIODE 9.3 
43 *232:83 *3734:C 9.3 
44 *232:81 *314:DIODE 9.3 
45 *232:79 *3735:C 9.3 
46 *232:77 *319:DIODE 9.3 
47 *232:75 *3736:C 9.3 
48 *232:73 *323:DIODE 9.3 
49 *232:71 *3737:C 9.3 
50 *232:69 *328:DIODE 9.3 
51 *232:67 *3738:C 9.3 
52 *232:65 *332:DIODE 9.3 
53 *232:63 *336:DIODE 9.3 
54 *232:61 *3739:C 9.3 
55 *232:59 *3740:C 11.4786 
56 *232:51 *340:DIODE 9.3 
57 *232:39 *3741:C 9.3 
58 *232:35 *344:DIODE 9.83571 
59 *232:29 *348:DIODE 17.4071 
60 *232:10 *3742:C 13.8 
61 *232:8 *411:DIODE 16.6036 
*END

*D_NET *233 0.0305693
*CONN
*I *3724:B I *D sky130_fd_sc_hd__and4b_2
*I *3750:B I *D sky130_fd_sc_hd__and4b_1
*I *3731:B I *D sky130_fd_sc_hd__and4b_1
*I *303:DIODE I *D sky130_fd_sc_hd__diode_2
*I *382:DIODE I *D sky130_fd_sc_hd__diode_2
*I *3752:B I *D sky130_fd_sc_hd__and4b_2
*I *392:DIODE I *D sky130_fd_sc_hd__diode_2
*I *3751:B I *D sky130_fd_sc_hd__and4b_1
*I *253:DIODE I *D sky130_fd_sc_hd__diode_2
*I *258:DIODE I *D sky130_fd_sc_hd__diode_2
*I *387:DIODE I *D sky130_fd_sc_hd__diode_2
*I *3721:B I *D sky130_fd_sc_hd__and4b_2
*I *3722:B I *D sky130_fd_sc_hd__and4b_2
*I *3723:B I *D sky130_fd_sc_hd__and4b_2
*I *263:DIODE I *D sky130_fd_sc_hd__diode_2
*I *268:DIODE I *D sky130_fd_sc_hd__diode_2
*I *3726:B I *D sky130_fd_sc_hd__and4b_2
*I *3720:A I *D sky130_fd_sc_hd__and2_4
*I *249:DIODE I *D sky130_fd_sc_hd__diode_2
*I *293:DIODE I *D sky130_fd_sc_hd__diode_2
*I *3728:B I *D sky130_fd_sc_hd__and4b_2
*I *3727:B I *D sky130_fd_sc_hd__and4b_2
*I *3725:B I *D sky130_fd_sc_hd__and4b_2
*I *273:DIODE I *D sky130_fd_sc_hd__diode_2
*I *278:DIODE I *D sky130_fd_sc_hd__diode_2
*I *283:DIODE I *D sky130_fd_sc_hd__diode_2
*I *413:DIODE I *D sky130_fd_sc_hd__diode_2
*I *298:DIODE I *D sky130_fd_sc_hd__diode_2
*I *3729:B I *D sky130_fd_sc_hd__and4b_2
*I *3730:B I *D sky130_fd_sc_hd__and4b_2
*I *288:DIODE I *D sky130_fd_sc_hd__diode_2
*I *3762:X O *D sky130_fd_sc_hd__buf_2
*CAP
1 *3724:B 0
2 *3750:B 5.37409e-05
3 *3731:B 0.000167038
4 *303:DIODE 0
5 *382:DIODE 0
6 *3752:B 0
7 *392:DIODE 0.0001288
8 *3751:B 0.000128909
9 *253:DIODE 0
10 *258:DIODE 0.000262002
11 *387:DIODE 0.000192083
12 *3721:B 0
13 *3722:B 0
14 *3723:B 0
15 *263:DIODE 0
16 *268:DIODE 0.000131705
17 *3726:B 0
18 *3720:A 3.241e-05
19 *249:DIODE 5.02771e-05
20 *293:DIODE 0
21 *3728:B 9.86397e-05
22 *3727:B 3.71463e-05
23 *3725:B 0
24 *273:DIODE 0
25 *278:DIODE 0
26 *283:DIODE 0
27 *413:DIODE 0
28 *298:DIODE 0.000127572
29 *3729:B 0.00010104
30 *3730:B 6.12245e-05
31 *288:DIODE 4.04842e-05
32 *3762:X 0
33 *233:303 0.000272868
34 *233:297 0.0015003
35 *233:272 0.00150383
36 *233:266 0.000242065
37 *233:259 0.000166969
38 *233:219 0.0003045
39 *233:217 0.000171406
40 *233:206 0.000263051
41 *233:204 0.000199768
42 *233:202 0.000152136
43 *233:193 0.000156218
44 *233:186 0.000239338
45 *233:177 0.000444383
46 *233:164 0.00046742
47 *233:155 0.000378078
48 *233:130 0.000213912
49 *233:108 0.000144106
50 *233:104 0.000233059
51 *233:93 0.000332438
52 *233:91 0.000533861
53 *233:82 0.000364266
54 *233:78 0.000310809
55 *233:74 0.000359902
56 *233:67 0.000389381
57 *233:60 0.000272578
58 *233:41 0.000234877
59 *233:35 0.000320989
60 *233:15 0.000242569
61 *233:13 0.000238676
62 *233:4 6.28696e-05
63 *298:DIODE *412:DIODE 3.08664e-05
64 *3728:B *234:8 6.87975e-06
65 *233:41 *234:8 0
66 *233:303 *234:90 8.6229e-06
67 *246:DIODE *233:186 9.41642e-05
68 *251:DIODE *249:DIODE 6.58926e-05
69 *251:DIODE *3720:A 0.000139907
70 *255:DIODE *392:DIODE 5.47047e-05
71 *256:DIODE *233:259 9.74665e-05
72 *285:DIODE *233:60 0.00014183
73 *285:DIODE *233:67 5.71472e-05
74 *3720:B *249:DIODE 0
75 *3720:B *3720:A 5.71472e-05
76 *3721:A_N *233:193 7.61932e-05
77 *3721:A_N *233:202 7.96137e-05
78 *3721:A_N *233:259 9.66977e-05
79 *3723:A_N *233:186 2.91152e-05
80 *3725:C *233:82 0.000358126
81 *3726:D *233:91 0.000227532
82 *3728:D *233:35 0.000185118
83 *3728:D *233:41 3.09506e-05
84 *3728:D *233:60 9.66977e-05
85 *3730:A_N *3730:B 0.00014183
86 *3730:A_N *233:15 0.000259934
87 *3730:A_N *233:35 0.000103553
88 *3752:D *3750:B 0.000123617
89 *3752:D *233:266 7.45777e-05
90 *111:14 *298:DIODE 4.7812e-05
91 *116:19 *233:104 9.23883e-05
92 *116:19 *233:130 0.000216147
93 *117:31 *233:41 3.6337e-05
94 *119:17 *3729:B 0.00020042
95 *143:59 *387:DIODE 0.000302646
96 *143:59 *392:DIODE 0.000106835
97 *143:59 *233:206 0.000134853
98 *143:71 *233:186 0.000165385
99 *144:30 *233:177 0
100 *145:6 *249:DIODE 5.65955e-05
101 *145:42 *249:DIODE 0.000187042
102 *145:42 *3720:A 3.53079e-05
103 *145:56 *233:297 2.42135e-05
104 *150:19 *3729:B 0
105 *150:33 *268:DIODE 9.62992e-05
106 *150:33 *3728:B 0.000183726
107 *150:33 *233:108 0.000269735
108 *150:33 *233:164 0.000111362
109 *150:33 *233:177 9.43968e-05
110 *150:33 *233:297 0.00307399
111 *152:27 *387:DIODE 0.000100359
112 *152:27 *392:DIODE 3.9267e-05
113 *152:27 *233:206 2.09177e-05
114 *159:27 *233:297 0.000108511
115 *178:31 *233:297 5.41794e-05
116 *179:27 *233:78 0
117 *179:27 *233:155 0
118 *181:21 *233:78 0.000212585
119 *181:21 *233:155 9.32322e-05
120 *183:25 *233:297 5.40899e-05
121 *184:29 *233:297 0.000577193
122 *184:43 *233:297 0.00310886
123 *198:27 *233:60 7.2029e-05
124 *199:14 *3728:B 0.00021253
125 *199:14 *233:108 8.60142e-05
126 *199:47 *233:82 0.000401939
127 *199:47 *233:91 5.68519e-05
128 *199:47 *233:108 0.000183721
129 *199:47 *233:186 0.000430832
130 *199:47 *233:193 8.57899e-05
131 *223:8 *3750:B 8.25843e-06
132 *225:18 *392:DIODE 2.01732e-05
133 *227:43 *3751:B 2.55806e-05
134 *227:63 *3731:B 1.51489e-05
135 *229:54 *233:272 9.49949e-05
136 *229:54 *233:297 9.21418e-06
137 *229:58 *233:259 5.56855e-05
138 *229:58 *233:266 2.05612e-05
139 *229:68 *387:DIODE 5.25337e-05
140 *229:68 *3751:B 5.33005e-05
141 *229:68 *233:206 9.71207e-05
142 *229:70 *258:DIODE 9.8475e-05
143 *229:70 *3751:B 1.24368e-05
144 *229:70 *233:219 1.38323e-05
145 *229:72 *258:DIODE 2.59355e-05
146 *229:74 *258:DIODE 7.48091e-05
147 *229:207 *233:186 5.33005e-05
148 *231:34 *3731:B 0.000137561
149 *231:34 *233:303 2.53281e-05
150 *231:48 *3750:B 0.000178847
151 *231:48 *233:266 0.000163455
152 *231:50 *233:202 0.000126144
153 *231:50 *233:259 8.36064e-05
154 *231:50 *233:266 5.33005e-05
155 *231:65 *233:193 0.000341662
156 *231:65 *233:202 5.52302e-05
157 *231:67 *233:186 2.77289e-05
158 *231:67 *233:193 5.52238e-05
159 *231:86 *233:74 0.00022936
160 *231:88 *233:67 0.000139913
161 *231:88 *233:74 0.000258011
162 *231:90 *233:67 0.000140933
163 *231:92 *233:35 0.000141729
164 *231:92 *233:60 0.000386144
165 *231:92 *233:67 0.000214192
166 *231:98 *233:35 0.000141734
167 *231:148 *3727:B 5.68722e-05
168 *231:148 *233:91 4.18895e-05
169 *231:148 *233:93 0.000344611
170 *232:107 *3731:B 5.49489e-05
171 *232:107 *233:303 0.000137235
*RES
1 *3762:X *233:4 9.3 
2 *233:4 *288:DIODE 10.2464 
3 *233:4 *233:13 0.428571 
4 *233:13 *233:15 2.58929 
5 *233:15 *3730:B 10.6571 
6 *233:15 *3729:B 20.8536 
7 *233:13 *233:35 4.23214 
8 *233:35 *233:41 10.9464 
9 *233:41 *298:DIODE 11.0679 
10 *233:41 *413:DIODE 9.3 
11 *233:35 *283:DIODE 9.3 
12 *233:35 *233:60 3.82143 
13 *233:60 *278:DIODE 9.3 
14 *233:60 *233:67 4.64286 
15 *233:67 *273:DIODE 9.3 
16 *233:67 *233:74 4.64286 
17 *233:74 *233:78 7.35714 
18 *233:78 *233:82 8.32143 
19 *233:82 *3725:B 9.3 
20 *233:82 *233:91 4.25 
21 *233:91 *233:93 3.41071 
22 *233:93 *3727:B 9.83571 
23 *233:93 *233:104 5.83929 
24 *233:104 *233:108 7.08929 
25 *233:108 *3728:B 21.4071 
26 *233:108 *293:DIODE 9.3 
27 *233:104 *233:130 7.35714 
28 *233:130 *249:DIODE 11.4964 
29 *233:130 *3720:A 10.6571 
30 *233:91 *3726:B 9.3 
31 *233:78 *233:155 5.83929 
32 *233:155 *268:DIODE 11.0679 
33 *233:155 *233:164 2.17857 
34 *233:164 *263:DIODE 9.3 
35 *233:164 *233:177 12.7143 
36 *233:177 *3723:B 9.3 
37 *233:177 *233:186 4.96429 
38 *233:186 *3722:B 9.3 
39 *233:186 *233:193 3.82143 
40 *233:193 *3721:B 9.3 
41 *233:193 *233:202 2.19643 
42 *233:202 *233:204 4.5 
43 *233:204 *233:206 1.94643 
44 *233:206 *387:DIODE 17.8714 
45 *233:206 *233:217 4.5 
46 *233:217 *233:219 0.535714 
47 *233:219 *258:DIODE 12.7107 
48 *233:219 *253:DIODE 9.3 
49 *233:217 *3751:B 11.5143 
50 *233:204 *392:DIODE 15.9786 
51 *233:202 *233:259 2.73214 
52 *233:259 *3752:B 9.3 
53 *233:259 *233:266 2.17857 
54 *233:266 *233:272 6.375 
55 *233:272 *382:DIODE 13.8 
56 *233:272 *233:297 46.8421 
57 *233:297 *233:303 10.9464 
58 *233:303 *303:DIODE 9.3 
59 *233:303 *3731:B 11.4786 
60 *233:266 *3750:B 11.0679 
61 *233:74 *3724:B 9.3 
*END

*D_NET *234 0.0452807
*CONN
*I *3749:B I *D sky130_fd_sc_hd__and4b_1
*I *3748:B I *D sky130_fd_sc_hd__and4b_1
*I *3747:B I *D sky130_fd_sc_hd__and4b_1
*I *335:DIODE I *D sky130_fd_sc_hd__diode_2
*I *331:DIODE I *D sky130_fd_sc_hd__diode_2
*I *327:DIODE I *D sky130_fd_sc_hd__diode_2
*I *322:DIODE I *D sky130_fd_sc_hd__diode_2
*I *318:DIODE I *D sky130_fd_sc_hd__diode_2
*I *313:DIODE I *D sky130_fd_sc_hd__diode_2
*I *3736:B I *D sky130_fd_sc_hd__and4b_1
*I *3742:B I *D sky130_fd_sc_hd__and4b_1
*I *351:DIODE I *D sky130_fd_sc_hd__diode_2
*I *3741:B I *D sky130_fd_sc_hd__and4b_1
*I *3740:B I *D sky130_fd_sc_hd__and4b_1
*I *347:DIODE I *D sky130_fd_sc_hd__diode_2
*I *3739:B I *D sky130_fd_sc_hd__and4b_1
*I *343:DIODE I *D sky130_fd_sc_hd__diode_2
*I *339:DIODE I *D sky130_fd_sc_hd__diode_2
*I *3738:B I *D sky130_fd_sc_hd__and4b_1
*I *3737:B I *D sky130_fd_sc_hd__and4b_1
*I *3735:B I *D sky130_fd_sc_hd__and4b_1
*I *3734:B I *D sky130_fd_sc_hd__and4b_1
*I *3733:B I *D sky130_fd_sc_hd__and4b_1
*I *3732:B I *D sky130_fd_sc_hd__and4b_1
*I *308:DIODE I *D sky130_fd_sc_hd__diode_2
*I *367:DIODE I *D sky130_fd_sc_hd__diode_2
*I *372:DIODE I *D sky130_fd_sc_hd__diode_2
*I *377:DIODE I *D sky130_fd_sc_hd__diode_2
*I *415:DIODE I *D sky130_fd_sc_hd__diode_2
*I *3762:A I *D sky130_fd_sc_hd__buf_2
*I *412:DIODE I *D sky130_fd_sc_hd__diode_2
*I *3763:X O *D sky130_fd_sc_hd__clkbuf_4
*CAP
1 *3749:B 5.35717e-05
2 *3748:B 0.00015252
3 *3747:B 0
4 *335:DIODE 0.000341084
5 *331:DIODE 0
6 *327:DIODE 0
7 *322:DIODE 0
8 *318:DIODE 0
9 *313:DIODE 0
10 *3736:B 0
11 *3742:B 0.000106188
12 *351:DIODE 4.26469e-05
13 *3741:B 0
14 *3740:B 0
15 *347:DIODE 0.000240938
16 *3739:B 0
17 *343:DIODE 2.99651e-05
18 *339:DIODE 0
19 *3738:B 0
20 *3737:B 0
21 *3735:B 0
22 *3734:B 0
23 *3733:B 0
24 *3732:B 0.000236215
25 *308:DIODE 0.000221367
26 *367:DIODE 0
27 *372:DIODE 0
28 *377:DIODE 0
29 *415:DIODE 0
30 *3762:A 0
31 *412:DIODE 0.000173579
32 *3763:X 0
33 *234:294 0.000728198
34 *234:287 0.00075274
35 *234:280 0.000736615
36 *234:273 0.000741978
37 *234:266 0.000402872
38 *234:241 0.000394043
39 *234:230 0.000647276
40 *234:206 0.000729093
41 *234:199 0.000113262
42 *234:185 0.000206738
43 *234:179 0.0003545
44 *234:172 0.000259683
45 *234:165 0.000382732
46 *234:157 0.000359935
47 *234:150 0.000157961
48 *234:143 0.000149671
49 *234:136 0.000260137
50 *234:124 0.000722795
51 *234:92 0.000457582
52 *234:90 0.00318341
53 *234:70 0.00282652
54 *234:66 0.000323271
55 *234:59 5.54617e-05
56 *234:52 0.000253865
57 *234:46 0.000415427
58 *234:35 0.00168459
59 *234:28 0.00165594
60 *234:8 0.000518374
61 *234:4 0.000460783
62 *259:DIODE *234:35 9.83442e-05
63 *297:DIODE *412:DIODE 7.72745e-05
64 *298:DIODE *412:DIODE 3.08664e-05
65 *299:DIODE *412:DIODE 5.01117e-05
66 *302:DIODE *308:DIODE 2.11419e-05
67 *302:DIODE *3732:B 0.000152705
68 *304:DIODE *234:136 9.34707e-05
69 *310:DIODE *234:124 1.90936e-05
70 *310:DIODE *234:136 3.4323e-06
71 *338:DIODE *347:DIODE 0.000142969
72 *379:DIODE *234:90 7.29646e-05
73 *384:DIODE *234:52 2.27983e-05
74 *385:DIODE *3749:B 4.00276e-06
75 *385:DIODE *234:46 9.39125e-05
76 *385:DIODE *234:52 0.000125671
77 *386:DIODE *234:52 5.06562e-05
78 *388:DIODE *234:52 5.52302e-05
79 *405:DIODE *234:124 0.000104976
80 *3728:B *234:8 6.87975e-06
81 *3728:D *234:8 0
82 *3729:D *234:8 0
83 *3736:D *234:165 9.90367e-05
84 *3737:A_N *234:165 5.33433e-05
85 *3737:D *234:172 0.000175529
86 *3738:D *234:179 1.54675e-05
87 *3740:C *234:206 0.00016641
88 *3740:C *234:230 5.49544e-05
89 *3740:D *347:DIODE 4.46689e-05
90 *3740:D *234:230 5.87037e-05
91 *3742:A_N *3742:B 0.000136958
92 *3742:D *3742:B 1.24368e-05
93 *3749:A_N *234:52 0.000316506
94 *3749:A_N *234:59 5.71472e-05
95 *3749:C *3748:B 1.83136e-05
96 *3749:D *234:90 1.08716e-05
97 *3843:A *3742:B 0.000304387
98 *111:14 *412:DIODE 0.000231277
99 *117:31 *412:DIODE 0
100 *121:19 *234:124 8.37654e-05
101 *122:29 *234:136 0
102 *125:39 *351:DIODE 0.000125724
103 *125:39 *234:241 7.47077e-05
104 *135:21 *234:90 2.19232e-05
105 *138:39 *234:90 0.000562789
106 *138:39 *234:124 0.000404848
107 *139:13 *351:DIODE 0.000124869
108 *139:13 *234:241 6.38329e-05
109 *140:21 *347:DIODE 1.08359e-05
110 *143:41 *234:136 0.00018597
111 *143:41 *234:143 0.000563518
112 *143:41 *234:150 0.000566624
113 *143:41 *234:157 0.000473275
114 *145:42 *234:35 0.000685203
115 *145:42 *234:46 0.000184745
116 *150:19 *412:DIODE 0
117 *150:19 *234:8 0
118 *150:26 *234:28 5.06736e-05
119 *150:33 *234:28 7.53919e-05
120 *150:33 *234:35 0.00043959
121 *150:37 *335:DIODE 0.000527778
122 *150:37 *234:124 0.000178043
123 *150:37 *234:266 5.47047e-05
124 *150:37 *234:273 0.000570046
125 *150:37 *234:280 0.000570046
126 *150:37 *234:287 0.000572181
127 *150:37 *234:294 0.000563624
128 *157:49 *234:185 0
129 *159:27 *3748:B 0.000179795
130 *178:25 *234:35 0.00269183
131 *178:25 *234:46 0.000172309
132 *184:29 *234:46 9.25014e-06
133 *199:14 *234:8 0.000119889
134 *204:23 *343:DIODE 0.000229637
135 *204:23 *347:DIODE 8.85532e-05
136 *206:10 *234:90 3.97677e-05
137 *208:14 *234:165 3.97657e-05
138 *208:14 *234:172 2.29824e-05
139 *208:14 *234:179 8.25843e-06
140 *209:14 *343:DIODE 0.000231554
141 *209:14 *234:172 0.000109966
142 *210:14 *234:179 0.000394547
143 *210:14 *234:185 0.00020618
144 *211:14 *347:DIODE 7.40571e-05
145 *212:18 *234:241 2.13481e-06
146 *218:6 *3748:B 5.49544e-05
147 *218:43 *308:DIODE 0.00010096
148 *222:19 *308:DIODE 8.6229e-06
149 *227:43 *234:52 5.97398e-05
150 *227:43 *234:90 3.45503e-05
151 *229:27 *234:46 2.5737e-05
152 *229:39 *234:46 0
153 *230:23 *234:230 4.38942e-05
154 *230:27 *234:206 1.98839e-05
155 *230:27 *234:230 8.71184e-05
156 *230:29 *234:206 9.41642e-05
157 *230:33 *234:199 0.000144075
158 *230:33 *234:206 0.000211243
159 *230:37 *234:179 1.98839e-05
160 *230:37 *234:199 1.51571e-05
161 *230:66 *234:165 4.43256e-05
162 *230:72 *234:157 1.59373e-05
163 *230:104 *234:136 1.55885e-05
164 *230:110 *3732:B 1.39841e-05
165 *230:139 *234:70 0.000177912
166 *230:141 *234:59 4.18895e-05
167 *230:141 *234:66 5.33005e-05
168 *230:141 *234:70 1.16078e-05
169 *230:339 *3742:B 1.98839e-05
170 *230:339 *234:241 0.000218404
171 *231:20 *308:DIODE 9.54798e-06
172 *231:20 *3732:B 3.31279e-05
173 *231:34 *234:90 4.37721e-05
174 *231:44 *234:46 6.2824e-05
175 *231:44 *234:52 8.6229e-06
176 *231:98 *412:DIODE 2.39876e-05
177 *231:98 *234:8 5.80706e-06
178 *232:61 *234:206 0.000126566
179 *232:63 *234:179 0.000129515
180 *232:63 *234:199 0.000185824
181 *232:63 *234:206 5.71472e-05
182 *232:65 *234:179 0.000255544
183 *232:67 *234:179 0.000166861
184 *232:69 *234:172 0.000346511
185 *232:69 *234:179 5.68713e-05
186 *232:71 *234:172 0.000172309
187 *232:73 *234:165 0.000262877
188 *232:73 *234:172 5.71472e-05
189 *232:75 *234:165 0.00014183
190 *232:77 *234:157 0.000296728
191 *232:79 *234:157 0.000175251
192 *232:81 *234:150 0.000262877
193 *232:81 *234:157 5.71472e-05
194 *232:83 *234:150 0.000259934
195 *232:85 *234:143 0.000262308
196 *232:85 *234:150 5.71472e-05
197 *232:87 *234:143 0.00025782
198 *232:89 *234:136 0.000229783
199 *232:89 *234:143 5.65955e-05
200 *232:107 *234:90 0.00208666
201 *232:109 *234:90 0.000268403
202 *232:111 *234:90 9.60875e-05
203 *232:123 *234:90 0.000232426
204 *232:131 *3748:B 6.52524e-05
205 *232:131 *234:90 5.69605e-05
206 *233:41 *234:8 0
207 *233:303 *234:90 8.6229e-06
*RES
1 *3763:X *234:4 9.3 
2 *234:4 *234:8 10.0893 
3 *234:8 *412:DIODE 18.2286 
4 *234:8 *3762:A 13.8 
5 *234:4 *234:28 2.17857 
6 *234:28 *415:DIODE 9.3 
7 *234:28 *234:35 34.2143 
8 *234:35 *377:DIODE 9.3 
9 *234:35 *234:46 8.51786 
10 *234:46 *234:52 10.1429 
11 *234:52 *372:DIODE 9.3 
12 *234:52 *234:59 0.946429 
13 *234:59 *367:DIODE 9.3 
14 *234:59 *234:66 0.535714 
15 *234:66 *234:70 2.5 
16 *234:70 *234:90 49.545 
17 *234:90 *234:92 3.41 
18 *234:92 *308:DIODE 16.8446 
19 *234:92 *3732:B 16.9696 
20 *234:90 *234:124 11.8645 
21 *234:124 *234:136 13.4821 
22 *234:136 *3733:B 9.3 
23 *234:136 *234:143 5.46429 
24 *234:143 *3734:B 9.3 
25 *234:143 *234:150 5.46429 
26 *234:150 *3735:B 9.3 
27 *234:150 *234:157 5.05357 
28 *234:157 *234:165 14.5893 
29 *234:165 *3737:B 9.3 
30 *234:165 *234:172 5.46429 
31 *234:172 *3738:B 9.3 
32 *234:172 *234:179 5.875 
33 *234:179 *234:185 12.1607 
34 *234:185 *339:DIODE 9.3 
35 *234:185 *343:DIODE 11.4786 
36 *234:179 *234:199 1.76786 
37 *234:199 *3739:B 9.3 
38 *234:199 *234:206 3.41071 
39 *234:206 *347:DIODE 22.3179 
40 *234:206 *3740:B 9.3 
41 *234:206 *234:230 5.19643 
42 *234:230 *3741:B 9.3 
43 *234:230 *234:241 8.125 
44 *234:241 *351:DIODE 15.4429 
45 *234:241 *3742:B 16.8 
46 *234:157 *3736:B 9.3 
47 *234:124 *234:266 0.535714 
48 *234:266 *313:DIODE 9.3 
49 *234:266 *234:273 5.46429 
50 *234:273 *318:DIODE 9.3 
51 *234:273 *234:280 5.46429 
52 *234:280 *322:DIODE 9.3 
53 *234:280 *234:287 5.46429 
54 *234:287 *327:DIODE 9.3 
55 *234:287 *234:294 5.46429 
56 *234:294 *331:DIODE 9.3 
57 *234:294 *335:DIODE 14.3536 
58 *234:70 *3747:B 9.3 
59 *234:66 *3748:B 21.3893 
60 *234:46 *3749:B 14.3357 
*END

*D_NET *235 0.0916338
*CONN
*I *622:DIODE I *D sky130_fd_sc_hd__diode_2
*I *3764:AD[5] I *D CF_SRAM_1024x32
*I *421:DIODE I *D sky130_fd_sc_hd__diode_2
*I *3823:X O *D sky130_fd_sc_hd__buf_4
*CAP
1 *622:DIODE 0.000159113
2 *3764:AD[5] 0.000528789
3 *421:DIODE 0
4 *3823:X 0.000134215
5 *235:38 7.22863e-06
6 *235:26 0.00167055
7 *235:22 0.005533
8 *235:20 0.00469974
9 *235:14 0.00381645
10 *235:12 0.00356533
11 *235:8 0.000357938
12 wbs_dat_o[26] *235:20 0.000318462
13 wbs_dat_o[26] *235:22 7.95274e-05
14 *620:DIODE *622:DIODE 3.39062e-05
15 *3764:AD[4] *3764:AD[5] 0.0011284
16 *3764:AD[6] *3764:AD[5] 0
17 *3823:A *235:8 9.74665e-05
18 *36:13 *622:DIODE 2.50833e-05
19 *36:13 *235:12 0.00014755
20 *148:14 *622:DIODE 4.03274e-05
21 *149:23 *235:14 0.0205686
22 *150:103 *235:22 4.28249e-05
23 *169:22 *235:14 0.000728625
24 *177:24 *235:22 0.00762167
25 *178:53 *235:22 0.000873884
26 *191:34 *235:22 0.00338221
27 *193:20 *235:14 0.00236103
28 *224:8 *235:8 2.12087e-05
29 *224:12 *622:DIODE 1.00631e-05
30 *224:12 *235:12 4.61644e-05
31 *224:14 *235:14 0.00201267
32 *224:18 *235:14 0.015699
33 *224:24 *235:20 0.000657749
34 *224:24 *235:22 0.000874936
35 *224:26 *235:22 0.0135447
36 *224:30 *3764:AD[5] 8.44071e-05
37 *224:30 *235:26 0.000760962
*RES
1 *3823:X *235:8 15.9786 
2 *235:8 *235:12 6.44643 
3 *235:12 *235:14 205.893 
4 *235:14 *235:20 13.6875 
5 *235:20 *235:22 192.259 
6 *235:22 *235:26 19 
7 *235:26 *421:DIODE 9.3 
8 *235:26 *3764:AD[5] 12.4643 
9 *3764:AD[5] *235:38 0.138393 
10 *235:8 *622:DIODE 16.5857 
*END

*D_NET *236 0.00135271
*CONN
*I *3764:SM I *D CF_SRAM_1024x32
*I *3765:LO O *D sky130_fd_sc_hd__conb_1
*CAP
1 *3764:SM 0.000676353
2 *3765:LO 0.000676353
3 *3764:SM *3764:ScanInDR 0
4 *3764:EN *3764:SM 0
*RES
1 *3765:LO *3764:SM 20.6705 
*END

*D_NET *237 0.00169694
*CONN
*I *3764:ScanInCC I *D CF_SRAM_1024x32
*I *3766:LO O *D sky130_fd_sc_hd__conb_1
*CAP
1 *3764:ScanInCC 0.000352372
2 *3766:LO 0.000352372
3 *491:DIODE *3764:ScanInCC 0.000458978
4 *3764:AD[3] *3764:ScanInCC 0.000399774
5 *113:11 *3764:ScanInCC 0.000133446
*RES
1 *3766:LO *3764:ScanInCC 20.6304 
*END

*D_NET *238 0.00147384
*CONN
*I *3764:ScanInDL I *D CF_SRAM_1024x32
*I *3767:LO O *D sky130_fd_sc_hd__conb_1
*CAP
1 *3764:ScanInDL 0.000732243
2 *3767:LO 0.000732243
3 *3764:BEN[0] *3764:ScanInDL 0
4 *3764:DI[0] *3764:ScanInDL 9.35836e-06
*RES
1 *3767:LO *3764:ScanInDL 21.3625 
*END

*D_NET *239 0.00180255
*CONN
*I *3764:ScanInDR I *D CF_SRAM_1024x32
*I *3768:LO O *D sky130_fd_sc_hd__conb_1
*CAP
1 *3764:ScanInDR 0.000548103
2 *3768:LO 0.000548103
3 *498:DIODE *3764:ScanInDR 0.000479658
4 *3764:SM *3764:ScanInDR 0
5 *120:10 *3764:ScanInDR 0.000226688
*RES
1 *3768:LO *3764:ScanInDR 21.5857 
*END

*D_NET *240 0.0017961
*CONN
*I *3764:TM I *D CF_SRAM_1024x32
*I *3769:LO O *D sky130_fd_sc_hd__conb_1
*CAP
1 *3764:TM 0.000631307
2 *3769:LO 0.000631307
3 *3764:TM *3764:WLBI 0.00044321
4 *3764:BEN[16] *3764:TM 9.02718e-05
5 *188:29 *3764:TM 0
*RES
1 *3769:LO *3764:TM 22.1839 
*END

*D_NET *241 0.00274317
*CONN
*I *3764:WLBI I *D CF_SRAM_1024x32
*I *3770:LO O *D sky130_fd_sc_hd__conb_1
*CAP
1 *3764:WLBI 0.000517509
2 *3770:LO 0.000517509
3 *499:DIODE *3764:WLBI 0.000764612
4 *3764:BEN[16] *3764:WLBI 0
5 *3764:TM *3764:WLBI 0.00044321
6 *121:7 *3764:WLBI 0.000419897
7 *122:13 *3764:WLBI 8.04387e-05
*RES
1 *3770:LO *3764:WLBI 32.6616 
*END

*D_NET *242 0.00214784
*CONN
*I *3764:WLOFF I *D CF_SRAM_1024x32
*I *3771:LO O *D sky130_fd_sc_hd__conb_1
*CAP
1 *3764:WLOFF 0.000546386
2 *3771:LO 0.000546386
3 *3764:EN *3764:WLOFF 0.00105506
4 *3764:R_WB *3764:WLOFF 0
*RES
1 *3771:LO *3764:WLOFF 22.4473 
*END

*D_NET *243 0.0399327
*CONN
*I *3764:vpwrac I *D CF_SRAM_1024x32
*I *3772:HI O *D sky130_fd_sc_hd__conb_1
*CAP
1 *3764:vpwrac 0.0103178
2 *3772:HI 0.000378631
3 *243:14 0.0106964
4 *3764:vpwrac *3764:vpwrpc 0.0172706
5 *243:14 *244:14 0.000604174
6 *3:25 *3764:vpwrac 2.33124e-05
7 *121:19 *3764:vpwrac 0
8 *125:15 *243:14 2.11419e-05
9 *128:19 *243:14 1.01912e-05
10 *157:51 *3764:vpwrac 0.000186248
11 *165:29 *3764:vpwrac 0
12 *167:45 *3764:vpwrac 0.000424268
*RES
1 *3772:HI *243:14 21.9167 
2 *243:14 *3764:vpwrac 43.64 
*END

*D_NET *244 0.0408472
*CONN
*I *3764:vpwrpc I *D CF_SRAM_1024x32
*I *3773:HI O *D sky130_fd_sc_hd__conb_1
*CAP
1 *3764:vpwrpc 0.00400029
2 *3773:HI 0.000605034
3 *244:14 0.00460533
4 *3764:vpwrac *3764:vpwrpc 0.0172706
5 *3:25 *3764:vpwrpc 0.00764986
6 *118:11 *3764:vpwrpc 0.000330311
7 *121:11 *3764:vpwrpc 0.00280851
8 *128:19 *244:14 2.11419e-05
9 *132:11 *244:14 1.01912e-05
10 *174:43 *3764:vpwrpc 0.00288726
11 *191:34 *244:14 5.4503e-05
12 *243:14 *244:14 0.000604174
*RES
1 *3773:HI *244:14 22.277 
2 *244:14 *3764:vpwrpc 42.3022 
*END
